SimulationType                MonteCarlo
NumberOfCycles                5000
NumberOfInitializationCycles  0
PrintEvery                    100
RestartFile                   no

Forcefield                    local
UseChargesFromCIFFile         yes

ChargeFromChargeEquilibration    yes
ChargeEquilibrationPeriodic      yes
ChargeEquilibrationEwald         yes
SymmetrizeFrameworkCharges       no

Framework 0
FrameworkName MIP-202
UnitCells 2 2 2
HeliumVoidFraction  0.154
ExternalTemperature 300.0

Component 0 MoleculeName             PFBA
            MoleculeDefinition       local
            IdealGasRosenbluthWeight 1.0
            WidomProbability         1.0
            CreateNumberOfMolecules  0
