%BLOCK LATTICE_CART
ang    # angstrom units
  12.030000000000    0.000000000000     0.000000000000   
  0.000000000000     14.935000000000    0.000000000000   
 -2.914879799464     0.000000000000     13.760662475138  
%ENDBLOCK LATTICE_CART

%BLOCK POSITIONS_FRAC
Al     0.000000000000     0.250000000000     0.250000000000   
Al     0.254923333333     0.216605000000     0.282390000000   
Al     0.166666666667     0.250000000000     0.250000000000   
O      0.292133333333     0.174235000000     0.309295000000   
O      0.104366666667     0.444500000000     0.420830000000   
O      0.283350000000     0.234485000000     0.237965000000   
H      0.270355000000     0.235728500000     0.204971000000   
O      0.056133333333     0.011125000000     0.422230000000   
O      0.217670000000     0.257340000000     0.259240000000   
H      0.226036333333     0.285918000000     0.251008000000   
O      0.013600000000     0.201050000000     0.294465000000   
O      0.102833333333     0.327165000000     0.263715000000   
O      0.006100000000     0.038480000000     0.448015000000   
O      0.163800000000     0.306145000000     0.279850000000   
O      0.163633333333     0.470350000000     0.439550000000   
N      0.182366666667     0.371650000000     0.347150000000   
H      0.202138000000     0.357658500000     0.340460000000   
N      0.184200000000     0.402550000000     0.381200000000   
N      0.062600000000     0.095250000000     0.379100000000   
N      0.051833333333     0.130900000000     0.350100000000   
H      0.067382666667     0.147656500000     0.337459500000   
C      0.332866666667     0.105600000000     0.369800000000   
H      0.307340000000     0.102407000000     0.373136000000   
C      0.327600000000     0.173950000000     0.313050000000   
C      0.136733333333     0.329850000000     0.286050000000   
C      0.031166666667     0.039900000000     0.422650000000   
C      0.138100000000     0.446150000000     0.416050000000   
C      0.123200000000     0.391400000000     0.344450000000   
H      0.096385000000     0.393651000000     0.336189500000   
C      0.030366666667     0.079350000000     0.390700000000   
C      0.014100000000     0.137450000000     0.343000000000   
C      0.148000000000     0.414850000000     0.380000000000   
C      0.146133333333     0.364300000000     0.324000000000   
Al     0.000000000000     0.000000000000     0.000000000000   
Al     0.078410000000     0.466605000000     0.467610000000   
Al     0.166666666667     0.000000000000     0.000000000000   
O      0.041200000000     0.424235000000     0.440705000000   
O      0.228966666667     0.194500000000     0.329170000000   
O      0.049983333333     0.484485000000     0.012035000000   
H      0.062978333333     0.485728500000     0.045029000000   
O      0.277200000000     0.261125000000     0.327770000000   
O      0.115663333333     0.007340000000     0.490760000000   
H      0.107297000000     0.035918000000     0.498992000000   
O      0.319733333333     0.451050000000     0.455535000000   
O      0.230500000000     0.077165000000     0.486285000000   
O      0.327233333333     0.288480000000     0.301985000000   
O      0.169533333333     0.056145000000     0.470150000000   
O      0.169700000000     0.220350000000     0.310450000000   
N      0.150966666667     0.121650000000     0.402850000000   
H      0.131195333333     0.107658500000     0.409540000000   
N      0.149133333333     0.152550000000     0.368800000000   
N      0.270733333333     0.345250000000     0.370900000000   
N      0.281500000000     0.380900000000     0.399900000000   
H      0.265950666667     0.397656500000     0.412540500000   
C      0.000466666667     0.355600000000     0.380200000000   
H      0.025993333333     0.352407000000     0.376864000000   
C      0.005733333333     0.423950000000     0.436950000000   
C      0.196600000000     0.079850000000     0.463950000000   
C      0.302166666667     0.289900000000     0.327350000000   
C      0.195233333333     0.196150000000     0.333950000000   
C      0.210133333333     0.141400000000     0.405550000000   
H      0.236948333333     0.143651000000     0.413810500000   
C      0.302966666667     0.329350000000     0.359300000000   
C      0.319233333333     0.387450000000     0.407000000000   
C      0.185333333333     0.164850000000     0.370000000000   
C      0.187200000000     0.114300000000     0.426000000000   
Al     0.078410000000     0.283395000000     0.217610000000   
O      0.041200000000     0.325765000000     0.190705000000   
O      0.228966666667     0.055500000000     0.079170000000   
O      0.049983333333     0.265515000000     0.262035000000   
H      0.062978333333     0.264271500000     0.295029000000   
O      0.277200000000     0.488875000000     0.077770000000   
O      0.115663333333     0.242660000000     0.240760000000   
H      0.107297000000     0.214082000000     0.248992000000   
O      0.319733333333     0.298950000000     0.205535000000   
O      0.230500000000     0.172835000000     0.236285000000   
O      0.327233333333     0.461520000000     0.051985000000   
O      0.169533333333     0.193855000000     0.220150000000   
O      0.169700000000     0.029650000000     0.060450000000   
N      0.150966666667     0.128350000000     0.152850000000   
H      0.131195333333     0.142341500000     0.159540000000   
N      0.149133333333     0.097450000000     0.118800000000   
N      0.270733333333     0.404750000000     0.120900000000   
N      0.281500000000     0.369100000000     0.149900000000   
H      0.265950666667     0.352343500000     0.162540500000   
C      0.000466666667     0.394400000000     0.130200000000   
H      0.025993333333     0.397593000000     0.126864000000   
C      0.005733333333     0.326050000000     0.186950000000   
C      0.196600000000     0.170150000000     0.213950000000   
C      0.302166666667     0.460100000000     0.077350000000   
C      0.195233333333     0.053850000000     0.083950000000   
C      0.210133333333     0.108600000000     0.155550000000   
H      0.236948333333     0.106349000000     0.163810500000   
C      0.302966666667     0.420650000000     0.109300000000   
C      0.319233333333     0.362550000000     0.157000000000   
C      0.185333333333     0.085150000000     0.120000000000   
C      0.187200000000     0.135700000000     0.176000000000   
Al     0.254923333333     0.033395000000     0.032390000000   
O      0.292133333333     0.075765000000     0.059295000000   
O      0.104366666667     0.305500000000     0.170830000000   
O      0.283350000000     0.015515000000     0.487965000000   
H      0.270355000000     0.014271500000     0.454971000000   
O      0.056133333333     0.238875000000     0.172230000000   
O      0.217670000000     0.492660000000     0.009240000000   
H      0.226036333333     0.464082000000     0.001008000000   
O      0.013600000000     0.048950000000     0.044465000000   
O      0.102833333333     0.422835000000     0.013715000000   
O      0.006100000000     0.211520000000     0.198015000000   
O      0.163800000000     0.443855000000     0.029850000000   
O      0.163633333333     0.279650000000     0.189550000000   
N      0.182366666667     0.378350000000     0.097150000000   
H      0.202138000000     0.392341500000     0.090460000000   
N      0.184200000000     0.347450000000     0.131200000000   
N      0.062600000000     0.154750000000     0.129100000000   
N      0.051833333333     0.119100000000     0.100100000000   
H      0.067382666667     0.102343500000     0.087459500000   
C      0.332866666667     0.144400000000     0.119800000000   
H      0.307340000000     0.147593000000     0.123136000000   
C      0.327600000000     0.076050000000     0.063050000000   
C      0.136733333333     0.420150000000     0.036050000000   
C      0.031166666667     0.210100000000     0.172650000000   
C      0.138100000000     0.303850000000     0.166050000000   
C      0.123200000000     0.358600000000     0.094450000000   
H      0.096385000000     0.356349000000     0.086189500000   
C      0.030366666667     0.170650000000     0.140700000000   
C      0.014100000000     0.112550000000     0.093000000000   
C      0.148000000000     0.335150000000     0.130000000000   
C      0.146133333333     0.385700000000     0.074000000000   
Al     0.000000000000     0.250000000000     0.750000000000   
Al     0.254923333333     0.216605000000     0.782390000000   
Al     0.166666666667     0.250000000000     0.750000000000   
O      0.292133333333     0.174235000000     0.809295000000   
O      0.104366666667     0.444500000000     0.920830000000   
O      0.283350000000     0.234485000000     0.737965000000   
H      0.270355000000     0.235728500000     0.704971000000   
O      0.056133333333     0.011125000000     0.922230000000   
O      0.217670000000     0.257340000000     0.759240000000   
H      0.226036333333     0.285918000000     0.751008000000   
O      0.013600000000     0.201050000000     0.794465000000   
O      0.102833333333     0.327165000000     0.763715000000   
O      0.006100000000     0.038480000000     0.948015000000   
O      0.163800000000     0.306145000000     0.779850000000   
O      0.163633333333     0.470350000000     0.939550000000   
N      0.182366666667     0.371650000000     0.847150000000   
H      0.202138000000     0.357658500000     0.840460000000   
N      0.184200000000     0.402550000000     0.881200000000   
N      0.062600000000     0.095250000000     0.879100000000   
N      0.051833333333     0.130900000000     0.850100000000   
H      0.067382666667     0.147656500000     0.837459500000   
C      0.332866666667     0.105600000000     0.869800000000   
H      0.307340000000     0.102407000000     0.873136000000   
C      0.327600000000     0.173950000000     0.813050000000   
C      0.136733333333     0.329850000000     0.786050000000   
C      0.031166666667     0.039900000000     0.922650000000   
C      0.138100000000     0.446150000000     0.916050000000   
C      0.123200000000     0.391400000000     0.844450000000   
H      0.096385000000     0.393651000000     0.836189500000   
C      0.030366666667     0.079350000000     0.890700000000   
C      0.014100000000     0.137450000000     0.843000000000   
C      0.148000000000     0.414850000000     0.880000000000   
C      0.146133333333     0.364300000000     0.824000000000   
Al     0.000000000000     0.000000000000     0.500000000000   
Al     0.078410000000     0.466605000000     0.967610000000   
Al     0.166666666667     0.000000000000     0.500000000000   
O      0.041200000000     0.424235000000     0.940705000000   
O      0.228966666667     0.194500000000     0.829170000000   
O      0.049983333333     0.484485000000     0.512035000000   
H      0.062978333333     0.485728500000     0.545029000000   
O      0.277200000000     0.261125000000     0.827770000000   
O      0.115663333333     0.007340000000     0.990760000000   
H      0.107297000000     0.035918000000     0.998992000000   
O      0.319733333333     0.451050000000     0.955535000000   
O      0.230500000000     0.077165000000     0.986285000000   
O      0.327233333333     0.288480000000     0.801985000000   
O      0.169533333333     0.056145000000     0.970150000000   
O      0.169700000000     0.220350000000     0.810450000000   
N      0.150966666667     0.121650000000     0.902850000000   
H      0.131195333333     0.107658500000     0.909540000000   
N      0.149133333333     0.152550000000     0.868800000000   
N      0.270733333333     0.345250000000     0.870900000000   
N      0.281500000000     0.380900000000     0.899900000000   
H      0.265950666667     0.397656500000     0.912540500000   
C      0.000466666667     0.355600000000     0.880200000000   
H      0.025993333333     0.352407000000     0.876864000000   
C      0.005733333333     0.423950000000     0.936950000000   
C      0.196600000000     0.079850000000     0.963950000000   
C      0.302166666667     0.289900000000     0.827350000000   
C      0.195233333333     0.196150000000     0.833950000000   
C      0.210133333333     0.141400000000     0.905550000000   
H      0.236948333333     0.143651000000     0.913810500000   
C      0.302966666667     0.329350000000     0.859300000000   
C      0.319233333333     0.387450000000     0.907000000000   
C      0.185333333333     0.164850000000     0.870000000000   
C      0.187200000000     0.114300000000     0.926000000000   
Al     0.078410000000     0.283395000000     0.717610000000   
O      0.041200000000     0.325765000000     0.690705000000   
O      0.228966666667     0.055500000000     0.579170000000   
O      0.049983333333     0.265515000000     0.762035000000   
H      0.062978333333     0.264271500000     0.795029000000   
O      0.277200000000     0.488875000000     0.577770000000   
O      0.115663333333     0.242660000000     0.740760000000   
H      0.107297000000     0.214082000000     0.748992000000   
O      0.319733333333     0.298950000000     0.705535000000   
O      0.230500000000     0.172835000000     0.736285000000   
O      0.327233333333     0.461520000000     0.551985000000   
O      0.169533333333     0.193855000000     0.720150000000   
O      0.169700000000     0.029650000000     0.560450000000   
N      0.150966666667     0.128350000000     0.652850000000   
H      0.131195333333     0.142341500000     0.659540000000   
N      0.149133333333     0.097450000000     0.618800000000   
N      0.270733333333     0.404750000000     0.620900000000   
N      0.281500000000     0.369100000000     0.649900000000   
H      0.265950666667     0.352343500000     0.662540500000   
C      0.000466666667     0.394400000000     0.630200000000   
H      0.025993333333     0.397593000000     0.626864000000   
C      0.005733333333     0.326050000000     0.686950000000   
C      0.196600000000     0.170150000000     0.713950000000   
C      0.302166666667     0.460100000000     0.577350000000   
C      0.195233333333     0.053850000000     0.583950000000   
C      0.210133333333     0.108600000000     0.655550000000   
H      0.236948333333     0.106349000000     0.663810500000   
C      0.302966666667     0.420650000000     0.609300000000   
C      0.319233333333     0.362550000000     0.657000000000   
C      0.185333333333     0.085150000000     0.620000000000   
C      0.187200000000     0.135700000000     0.676000000000   
Al     0.254923333333     0.033395000000     0.532390000000   
O      0.292133333333     0.075765000000     0.559295000000   
O      0.104366666667     0.305500000000     0.670830000000   
O      0.283350000000     0.015515000000     0.987965000000   
H      0.270355000000     0.014271500000     0.954971000000   
O      0.056133333333     0.238875000000     0.672230000000   
O      0.217670000000     0.492660000000     0.509240000000   
H      0.226036333333     0.464082000000     0.501008000000   
O      0.013600000000     0.048950000000     0.544465000000   
O      0.102833333333     0.422835000000     0.513715000000   
O      0.006100000000     0.211520000000     0.698015000000   
O      0.163800000000     0.443855000000     0.529850000000   
O      0.163633333333     0.279650000000     0.689550000000   
N      0.182366666667     0.378350000000     0.597150000000   
H      0.202138000000     0.392341500000     0.590460000000   
N      0.184200000000     0.347450000000     0.631200000000   
N      0.062600000000     0.154750000000     0.629100000000   
N      0.051833333333     0.119100000000     0.600100000000   
H      0.067382666667     0.102343500000     0.587459500000   
C      0.332866666667     0.144400000000     0.619800000000   
H      0.307340000000     0.147593000000     0.623136000000   
C      0.327600000000     0.076050000000     0.563050000000   
C      0.136733333333     0.420150000000     0.536050000000   
C      0.031166666667     0.210100000000     0.672650000000   
C      0.138100000000     0.303850000000     0.666050000000   
C      0.123200000000     0.358600000000     0.594450000000   
H      0.096385000000     0.356349000000     0.586189500000   
C      0.030366666667     0.170650000000     0.640700000000   
C      0.014100000000     0.112550000000     0.593000000000   
C      0.148000000000     0.335150000000     0.630000000000   
C      0.146133333333     0.385700000000     0.574000000000   
Al     0.000000000000     0.750000000000     0.250000000000   
Al     0.254923333333     0.716605000000     0.282390000000   
Al     0.166666666667     0.750000000000     0.250000000000   
O      0.292133333333     0.674235000000     0.309295000000   
O      0.104366666667     0.944500000000     0.420830000000   
O      0.283350000000     0.734485000000     0.237965000000   
H      0.270355000000     0.735728500000     0.204971000000   
O      0.056133333333     0.511125000000     0.422230000000   
O      0.217670000000     0.757340000000     0.259240000000   
H      0.226036333333     0.785918000000     0.251008000000   
O      0.013600000000     0.701050000000     0.294465000000   
O      0.102833333333     0.827165000000     0.263715000000   
O      0.006100000000     0.538480000000     0.448015000000   
O      0.163800000000     0.806145000000     0.279850000000   
O      0.163633333333     0.970350000000     0.439550000000   
N      0.182366666667     0.871650000000     0.347150000000   
H      0.202138000000     0.857658500000     0.340460000000   
N      0.184200000000     0.902550000000     0.381200000000   
N      0.062600000000     0.595250000000     0.379100000000   
N      0.051833333333     0.630900000000     0.350100000000   
H      0.067382666667     0.647656500000     0.337459500000   
C      0.332866666667     0.605600000000     0.369800000000   
H      0.307340000000     0.602407000000     0.373136000000   
C      0.327600000000     0.673950000000     0.313050000000   
C      0.136733333333     0.829850000000     0.286050000000   
C      0.031166666667     0.539900000000     0.422650000000   
C      0.138100000000     0.946150000000     0.416050000000   
C      0.123200000000     0.891400000000     0.344450000000   
H      0.096385000000     0.893651000000     0.336189500000   
C      0.030366666667     0.579350000000     0.390700000000   
C      0.014100000000     0.637450000000     0.343000000000   
C      0.148000000000     0.914850000000     0.380000000000   
C      0.146133333333     0.864300000000     0.324000000000   
Al     0.000000000000     0.500000000000     0.000000000000   
Al     0.078410000000     0.966605000000     0.467610000000   
Al     0.166666666667     0.500000000000     0.000000000000   
O      0.041200000000     0.924235000000     0.440705000000   
O      0.228966666667     0.694500000000     0.329170000000   
O      0.049983333333     0.984485000000     0.012035000000   
H      0.062978333333     0.985728500000     0.045029000000   
O      0.277200000000     0.761125000000     0.327770000000   
O      0.115663333333     0.507340000000     0.490760000000   
H      0.107297000000     0.535918000000     0.498992000000   
O      0.319733333333     0.951050000000     0.455535000000   
O      0.230500000000     0.577165000000     0.486285000000   
O      0.327233333333     0.788480000000     0.301985000000   
O      0.169533333333     0.556145000000     0.470150000000   
O      0.169700000000     0.720350000000     0.310450000000   
N      0.150966666667     0.621650000000     0.402850000000   
H      0.131195333333     0.607658500000     0.409540000000   
N      0.149133333333     0.652550000000     0.368800000000   
N      0.270733333333     0.845250000000     0.370900000000   
N      0.281500000000     0.880900000000     0.399900000000   
H      0.265950666667     0.897656500000     0.412540500000   
C      0.000466666667     0.855600000000     0.380200000000   
H      0.025993333333     0.852407000000     0.376864000000   
C      0.005733333333     0.923950000000     0.436950000000   
C      0.196600000000     0.579850000000     0.463950000000   
C      0.302166666667     0.789900000000     0.327350000000   
C      0.195233333333     0.696150000000     0.333950000000   
C      0.210133333333     0.641400000000     0.405550000000   
H      0.236948333333     0.643651000000     0.413810500000   
C      0.302966666667     0.829350000000     0.359300000000   
C      0.319233333333     0.887450000000     0.407000000000   
C      0.185333333333     0.664850000000     0.370000000000   
C      0.187200000000     0.614300000000     0.426000000000   
Al     0.078410000000     0.783395000000     0.217610000000   
O      0.041200000000     0.825765000000     0.190705000000   
O      0.228966666667     0.555500000000     0.079170000000   
O      0.049983333333     0.765515000000     0.262035000000   
H      0.062978333333     0.764271500000     0.295029000000   
O      0.277200000000     0.988875000000     0.077770000000   
O      0.115663333333     0.742660000000     0.240760000000   
H      0.107297000000     0.714082000000     0.248992000000   
O      0.319733333333     0.798950000000     0.205535000000   
O      0.230500000000     0.672835000000     0.236285000000   
O      0.327233333333     0.961520000000     0.051985000000   
O      0.169533333333     0.693855000000     0.220150000000   
O      0.169700000000     0.529650000000     0.060450000000   
N      0.150966666667     0.628350000000     0.152850000000   
H      0.131195333333     0.642341500000     0.159540000000   
N      0.149133333333     0.597450000000     0.118800000000   
N      0.270733333333     0.904750000000     0.120900000000   
N      0.281500000000     0.869100000000     0.149900000000   
H      0.265950666667     0.852343500000     0.162540500000   
C      0.000466666667     0.894400000000     0.130200000000   
H      0.025993333333     0.897593000000     0.126864000000   
C      0.005733333333     0.826050000000     0.186950000000   
C      0.196600000000     0.670150000000     0.213950000000   
C      0.302166666667     0.960100000000     0.077350000000   
C      0.195233333333     0.553850000000     0.083950000000   
C      0.210133333333     0.608600000000     0.155550000000   
H      0.236948333333     0.606349000000     0.163810500000   
C      0.302966666667     0.920650000000     0.109300000000   
C      0.319233333333     0.862550000000     0.157000000000   
C      0.185333333333     0.585150000000     0.120000000000   
C      0.187200000000     0.635700000000     0.176000000000   
Al     0.254923333333     0.533395000000     0.032390000000   
O      0.292133333333     0.575765000000     0.059295000000   
O      0.104366666667     0.805500000000     0.170830000000   
O      0.283350000000     0.515515000000     0.487965000000   
H      0.270355000000     0.514271500000     0.454971000000   
O      0.056133333333     0.738875000000     0.172230000000   
O      0.217670000000     0.992660000000     0.009240000000   
H      0.226036333333     0.964082000000     0.001008000000   
O      0.013600000000     0.548950000000     0.044465000000   
O      0.102833333333     0.922835000000     0.013715000000   
O      0.006100000000     0.711520000000     0.198015000000   
O      0.163800000000     0.943855000000     0.029850000000   
O      0.163633333333     0.779650000000     0.189550000000   
N      0.182366666667     0.878350000000     0.097150000000   
H      0.202138000000     0.892341500000     0.090460000000   
N      0.184200000000     0.847450000000     0.131200000000   
N      0.062600000000     0.654750000000     0.129100000000   
N      0.051833333333     0.619100000000     0.100100000000   
H      0.067382666667     0.602343500000     0.087459500000   
C      0.332866666667     0.644400000000     0.119800000000   
H      0.307340000000     0.647593000000     0.123136000000   
C      0.327600000000     0.576050000000     0.063050000000   
C      0.136733333333     0.920150000000     0.036050000000   
C      0.031166666667     0.710100000000     0.172650000000   
C      0.138100000000     0.803850000000     0.166050000000   
C      0.123200000000     0.858600000000     0.094450000000   
H      0.096385000000     0.856349000000     0.086189500000   
C      0.030366666667     0.670650000000     0.140700000000   
C      0.014100000000     0.612550000000     0.093000000000   
C      0.148000000000     0.835150000000     0.130000000000   
C      0.146133333333     0.885700000000     0.074000000000   
Al     0.000000000000     0.750000000000     0.750000000000   
Al     0.254923333333     0.716605000000     0.782390000000   
Al     0.166666666667     0.750000000000     0.750000000000   
O      0.292133333333     0.674235000000     0.809295000000   
O      0.104366666667     0.944500000000     0.920830000000   
O      0.283350000000     0.734485000000     0.737965000000   
H      0.270355000000     0.735728500000     0.704971000000   
O      0.056133333333     0.511125000000     0.922230000000   
O      0.217670000000     0.757340000000     0.759240000000   
H      0.226036333333     0.785918000000     0.751008000000   
O      0.013600000000     0.701050000000     0.794465000000   
O      0.102833333333     0.827165000000     0.763715000000   
O      0.006100000000     0.538480000000     0.948015000000   
O      0.163800000000     0.806145000000     0.779850000000   
O      0.163633333333     0.970350000000     0.939550000000   
N      0.182366666667     0.871650000000     0.847150000000   
H      0.202138000000     0.857658500000     0.840460000000   
N      0.184200000000     0.902550000000     0.881200000000   
N      0.062600000000     0.595250000000     0.879100000000   
N      0.051833333333     0.630900000000     0.850100000000   
H      0.067382666667     0.647656500000     0.837459500000   
C      0.332866666667     0.605600000000     0.869800000000   
H      0.307340000000     0.602407000000     0.873136000000   
C      0.327600000000     0.673950000000     0.813050000000   
C      0.136733333333     0.829850000000     0.786050000000   
C      0.031166666667     0.539900000000     0.922650000000   
C      0.138100000000     0.946150000000     0.916050000000   
C      0.123200000000     0.891400000000     0.844450000000   
H      0.096385000000     0.893651000000     0.836189500000   
C      0.030366666667     0.579350000000     0.890700000000   
C      0.014100000000     0.637450000000     0.843000000000   
C      0.148000000000     0.914850000000     0.880000000000   
C      0.146133333333     0.864300000000     0.824000000000   
Al     0.000000000000     0.500000000000     0.500000000000   
Al     0.078410000000     0.966605000000     0.967610000000   
Al     0.166666666667     0.500000000000     0.500000000000   
O      0.041200000000     0.924235000000     0.940705000000   
O      0.228966666667     0.694500000000     0.829170000000   
O      0.049983333333     0.984485000000     0.512035000000   
H      0.062978333333     0.985728500000     0.545029000000   
O      0.277200000000     0.761125000000     0.827770000000   
O      0.115663333333     0.507340000000     0.990760000000   
H      0.107297000000     0.535918000000     0.998992000000   
O      0.319733333333     0.951050000000     0.955535000000   
O      0.230500000000     0.577165000000     0.986285000000   
O      0.327233333333     0.788480000000     0.801985000000   
O      0.169533333333     0.556145000000     0.970150000000   
O      0.169700000000     0.720350000000     0.810450000000   
N      0.150966666667     0.621650000000     0.902850000000   
H      0.131195333333     0.607658500000     0.909540000000   
N      0.149133333333     0.652550000000     0.868800000000   
N      0.270733333333     0.845250000000     0.870900000000   
N      0.281500000000     0.880900000000     0.899900000000   
H      0.265950666667     0.897656500000     0.912540500000   
C      0.000466666667     0.855600000000     0.880200000000   
H      0.025993333333     0.852407000000     0.876864000000   
C      0.005733333333     0.923950000000     0.936950000000   
C      0.196600000000     0.579850000000     0.963950000000   
C      0.302166666667     0.789900000000     0.827350000000   
C      0.195233333333     0.696150000000     0.833950000000   
C      0.210133333333     0.641400000000     0.905550000000   
H      0.236948333333     0.643651000000     0.913810500000   
C      0.302966666667     0.829350000000     0.859300000000   
C      0.319233333333     0.887450000000     0.907000000000   
C      0.185333333333     0.664850000000     0.870000000000   
C      0.187200000000     0.614300000000     0.926000000000   
Al     0.078410000000     0.783395000000     0.717610000000   
O      0.041200000000     0.825765000000     0.690705000000   
O      0.228966666667     0.555500000000     0.579170000000   
O      0.049983333333     0.765515000000     0.762035000000   
H      0.062978333333     0.764271500000     0.795029000000   
O      0.277200000000     0.988875000000     0.577770000000   
O      0.115663333333     0.742660000000     0.740760000000   
H      0.107297000000     0.714082000000     0.748992000000   
O      0.319733333333     0.798950000000     0.705535000000   
O      0.230500000000     0.672835000000     0.736285000000   
O      0.327233333333     0.961520000000     0.551985000000   
O      0.169533333333     0.693855000000     0.720150000000   
O      0.169700000000     0.529650000000     0.560450000000   
N      0.150966666667     0.628350000000     0.652850000000   
H      0.131195333333     0.642341500000     0.659540000000   
N      0.149133333333     0.597450000000     0.618800000000   
N      0.270733333333     0.904750000000     0.620900000000   
N      0.281500000000     0.869100000000     0.649900000000   
H      0.265950666667     0.852343500000     0.662540500000   
C      0.000466666667     0.894400000000     0.630200000000   
H      0.025993333333     0.897593000000     0.626864000000   
C      0.005733333333     0.826050000000     0.686950000000   