%BLOCK LATTICE_CART
ang    # angstrom units
  12.043800000000    0.000000000000     0.000000000000   
  0.000000000000     14.964900000000    0.000000000000   
 -2.910203910609     0.000000000000     13.775348182847  
%ENDBLOCK LATTICE_CART

%BLOCK POSITIONS_FRAC
Al     0.166666666667     0.166666666667     0.166666666667   
Al     0.245060000000     0.144516666667     0.145003333333   
Al     0.000000000000     0.166666666667     0.166666666667   
O      0.207776666667     0.116296666667     0.127153333333   
O      0.216686666667     0.156506666667     0.174520000000   
H      0.229463000000     0.157477333333     0.195996666667   
O      0.270813333333     0.129643333333     0.113736666667   
O      0.282370000000     0.171726666667     0.160420000000   
H      0.274220666667     0.190387333333     0.165681000000   
O      0.110493333333     0.007536666667     0.051850000000   
O      0.269620000000     0.051303333333     0.009093333333   
O      0.153183333333     0.133740000000     0.137366666667   
O      0.160703333333     0.025593333333     0.034966666667   
O      0.330363333333     0.036990000000     0.020656666667   
O      0.330263333333     0.146240000000     0.126810000000   
N      0.015300000000     0.080933333333     0.064866666667   
H      0.034561000000     0.071771666667     0.060508666667   
N      0.115200000000     0.087066666667     0.100000000000   
H      0.099957666667     0.097941666667     0.108199333333   
N      0.104700000000     0.063400000000     0.081033333333   
N      0.017166666667     0.101600000000     0.087533333333   
C      0.172700000000     0.115700000000     0.124766666667   
C      0.304600000000     0.130466666667     0.110866666667   
C      0.135733333333     0.026700000000     0.051733333333   
C      0.167133333333     0.070433333333     0.086866666667   
H      0.192073666667     0.068331333333     0.084659666667   
C      0.303466666667     0.053033333333     0.024500000000   
C      0.289933333333     0.094033333333     0.062933333333   
H      0.263718666667     0.095613000000     0.057306333333   
C      0.152766666667     0.091566666667     0.104600000000   
C      0.312600000000     0.076133333333     0.049533333333   
C      0.314566666667     0.109600000000     0.087066666667   
C      0.136466666667     0.052933333333     0.072966666667   
Al     0.166666666667     0.000000000000     0.000000000000   
Al     0.088273333333     0.311183333333     0.021663333333   
Al     0.000000000000     0.000000000000     0.000000000000   
O      0.125556666667     0.282963333333     0.039513333333   
O      0.116646666667     0.323173333333     0.325480000000   
H      0.103870333333     0.324144000000     0.304003333333   
O      0.062520000000     0.296310000000     0.052930000000   
O      0.050963333333     0.005060000000     0.006246666667   
H      0.059112666667     0.023720666667     0.000985666667   
O      0.222840000000     0.174203333333     0.114816666667   
O      0.063713333333     0.217970000000     0.157573333333   
O      0.180150000000     0.300406666667     0.029300000000   
O      0.172630000000     0.192260000000     0.131700000000   
O      0.002970000000     0.203656666667     0.146010000000   
O      0.003070000000     0.312906666667     0.039856666667   
N      0.318033333333     0.247600000000     0.101800000000   
H      0.298772333333     0.238438333333     0.106158000000   
N      0.218133333333     0.253733333333     0.066666666667   
H      0.233375666667     0.264608333333     0.058467333333   
N      0.228633333333     0.230066666667     0.085633333333   
N      0.316166666667     0.268266666667     0.079133333333   
C      0.160633333333     0.282366666667     0.041900000000   
C      0.028733333333     0.297133333333     0.055800000000   
C      0.197600000000     0.193366666667     0.114933333333   
C      0.166200000000     0.237100000000     0.079800000000   
H      0.141259666667     0.234998000000     0.082007000000   
C      0.029866666667     0.219700000000     0.142166666667   
C      0.043400000000     0.260700000000     0.103733333333   
H      0.069614666667     0.262279666667     0.109360333333   
C      0.180566666667     0.258233333333     0.062066666667   
C      0.020733333333     0.242800000000     0.117133333333   
C      0.018766666667     0.276266666667     0.079600000000   
C      0.196866666667     0.219600000000     0.093700000000   
Al     0.088273333333     0.188816666667     0.188330000000   
O      0.125556666667     0.217036666667     0.206180000000   
O      0.116646666667     0.176826666667     0.158813333333   
H      0.103870333333     0.175856000000     0.137336666667   
O      0.062520000000     0.203690000000     0.219596666667   
O      0.050963333333     0.161606666667     0.172913333333   
H      0.059112666667     0.142946000000     0.167652333333   
O      0.222840000000     0.325796666667     0.281483333333   
O      0.063713333333     0.282030000000     0.324240000000   
O      0.180150000000     0.199593333333     0.195966666667   
O      0.172630000000     0.307740000000     0.298366666667   
O      0.002970000000     0.296343333333     0.312676666667   
O      0.003070000000     0.187093333333     0.206523333333   
N      0.318033333333     0.252400000000     0.268466666667   
H      0.298772333333     0.261561666667     0.272824666667   
N      0.218133333333     0.246266666667     0.233333333333   
H      0.233375666667     0.235391666667     0.225134000000   
N      0.228633333333     0.269933333333     0.252300000000   
N      0.316166666667     0.231733333333     0.245800000000   
C      0.160633333333     0.217633333333     0.208566666667   
C      0.028733333333     0.202866666667     0.222466666667   
C      0.197600000000     0.306633333333     0.281600000000   
C      0.166200000000     0.262900000000     0.246466666667   
H      0.141259666667     0.265002000000     0.248673666667   
C      0.029866666667     0.280300000000     0.308833333333   
C      0.043400000000     0.239300000000     0.270400000000   
H      0.069614666667     0.237720333333     0.276027000000   
C      0.180566666667     0.241766666667     0.228733333333   
C      0.020733333333     0.257200000000     0.283800000000   
C      0.018766666667     0.223733333333     0.246266666667   
C      0.196866666667     0.280400000000     0.260366666667   
Al     0.245060000000     0.022150000000     0.311670000000   
O      0.207776666667     0.050370000000     0.293820000000   
O      0.216686666667     0.010160000000     0.007853333333   
H      0.229463000000     0.009189333333     0.029330000000   
O      0.270813333333     0.037023333333     0.280403333333   
O      0.282370000000     0.328273333333     0.327086666667   
H      0.274220666667     0.309612666667     0.332347666667   
O      0.110493333333     0.159130000000     0.218516666667   
O      0.269620000000     0.115363333333     0.175760000000   
O      0.153183333333     0.032926666667     0.304033333333   
O      0.160703333333     0.141073333333     0.201633333333   
O      0.330363333333     0.129676666667     0.187323333333   
O      0.330263333333     0.020426666667     0.293476666667   
N      0.015300000000     0.085733333333     0.231533333333   
H      0.034561000000     0.094895000000     0.227175333333   
N      0.115200000000     0.079600000000     0.266666666667   
H      0.099957666667     0.068725000000     0.274866000000   
N      0.104700000000     0.103266666667     0.247700000000   
N      0.017166666667     0.065066666667     0.254200000000   
C      0.172700000000     0.050966666667     0.291433333333   
C      0.304600000000     0.036200000000     0.277533333333   
C      0.135733333333     0.139966666667     0.218400000000   
C      0.167133333333     0.096233333333     0.253533333333   
H      0.192073666667     0.098335333333     0.251326333333   
C      0.303466666667     0.113633333333     0.191166666667   
C      0.289933333333     0.072633333333     0.229600000000   
H      0.263718666667     0.071053666667     0.223973000000   
C      0.152766666667     0.075100000000     0.271266666667   
C      0.312600000000     0.090533333333     0.216200000000   
C      0.314566666667     0.057066666667     0.253733333333   
C      0.136466666667     0.113733333333     0.239633333333   
Al     0.166666666667     0.166666666667     0.500000000000   
Al     0.245060000000     0.144516666667     0.478336666667   
Al     0.000000000000     0.166666666667     0.500000000000   
O      0.207776666667     0.116296666667     0.460486666667   
O      0.216686666667     0.156506666667     0.507853333333   
H      0.229463000000     0.157477333333     0.529330000000   
O      0.270813333333     0.129643333333     0.447070000000   
O      0.282370000000     0.171726666667     0.493753333333   
H      0.274220666667     0.190387333333     0.499014333333   
O      0.110493333333     0.007536666667     0.385183333333   
O      0.269620000000     0.051303333333     0.342426666667   
O      0.153183333333     0.133740000000     0.470700000000   
O      0.160703333333     0.025593333333     0.368300000000   
O      0.330363333333     0.036990000000     0.353990000000   
O      0.330263333333     0.146240000000     0.460143333333   
N      0.015300000000     0.080933333333     0.398200000000   
H      0.034561000000     0.071771666667     0.393842000000   
N      0.115200000000     0.087066666667     0.433333333333   
H      0.099957666667     0.097941666667     0.441532666667   
N      0.104700000000     0.063400000000     0.414366666667   
N      0.017166666667     0.101600000000     0.420866666667   
C      0.172700000000     0.115700000000     0.458100000000   
C      0.304600000000     0.130466666667     0.444200000000   
C      0.135733333333     0.026700000000     0.385066666667   
C      0.167133333333     0.070433333333     0.420200000000   
H      0.192073666667     0.068331333333     0.417993000000   
C      0.303466666667     0.053033333333     0.357833333333   
C      0.289933333333     0.094033333333     0.396266666667   
H      0.263718666667     0.095613000000     0.390639666667   
C      0.152766666667     0.091566666667     0.437933333333   
C      0.312600000000     0.076133333333     0.382866666667   
C      0.314566666667     0.109600000000     0.420400000000   
C      0.136466666667     0.052933333333     0.406300000000   
Al     0.166666666667     0.000000000000     0.333333333333   
Al     0.088273333333     0.311183333333     0.354996666667   
Al     0.000000000000     0.000000000000     0.333333333333   
O      0.125556666667     0.282963333333     0.372846666667   
O      0.116646666667     0.323173333333     0.658813333333   
H      0.103870333333     0.324144000000     0.637336666667   
O      0.062520000000     0.296310000000     0.386263333333   
O      0.050963333333     0.005060000000     0.339580000000   
H      0.059112666667     0.023720666667     0.334319000000   
O      0.222840000000     0.174203333333     0.448150000000   
O      0.063713333333     0.217970000000     0.490906666667   
O      0.180150000000     0.300406666667     0.362633333333   
O      0.172630000000     0.192260000000     0.465033333333   
O      0.002970000000     0.203656666667     0.479343333333   
O      0.003070000000     0.312906666667     0.373190000000   
N      0.318033333333     0.247600000000     0.435133333333   
H      0.298772333333     0.238438333333     0.439491333333   
N      0.218133333333     0.253733333333     0.400000000000   
H      0.233375666667     0.264608333333     0.391800666667   
N      0.228633333333     0.230066666667     0.418966666667   
N      0.316166666667     0.268266666667     0.412466666667   
C      0.160633333333     0.282366666667     0.375233333333   
C      0.028733333333     0.297133333333     0.389133333333   
C      0.197600000000     0.193366666667     0.448266666667   
C      0.166200000000     0.237100000000     0.413133333333   
H      0.141259666667     0.234998000000     0.415340333333   
C      0.029866666667     0.219700000000     0.475500000000   
C      0.043400000000     0.260700000000     0.437066666667   
H      0.069614666667     0.262279666667     0.442693666667   
C      0.180566666667     0.258233333333     0.395400000000   
C      0.020733333333     0.242800000000     0.450466666667   
C      0.018766666667     0.276266666667     0.412933333333   
C      0.196866666667     0.219600000000     0.427033333333   
Al     0.088273333333     0.188816666667     0.521663333333   
O      0.125556666667     0.217036666667     0.539513333333   
O      0.116646666667     0.176826666667     0.492146666667   
H      0.103870333333     0.175856000000     0.470670000000   
O      0.062520000000     0.203690000000     0.552930000000   
O      0.050963333333     0.161606666667     0.506246666667   
H      0.059112666667     0.142946000000     0.500985666667   
O      0.222840000000     0.325796666667     0.614816666667   
O      0.063713333333     0.282030000000     0.657573333333   
O      0.180150000000     0.199593333333     0.529300000000   
O      0.172630000000     0.307740000000     0.631700000000   
O      0.002970000000     0.296343333333     0.646010000000   
O      0.003070000000     0.187093333333     0.539856666667   
N      0.318033333333     0.252400000000     0.601800000000   
H      0.298772333333     0.261561666667     0.606158000000   
N      0.218133333333     0.246266666667     0.566666666667   
H      0.233375666667     0.235391666667     0.558467333333   
N      0.228633333333     0.269933333333     0.585633333333   
N      0.316166666667     0.231733333333     0.579133333333   
C      0.160633333333     0.217633333333     0.541900000000   
C      0.028733333333     0.202866666667     0.555800000000   
C      0.197600000000     0.306633333333     0.614933333333   
C      0.166200000000     0.262900000000     0.579800000000   
H      0.141259666667     0.265002000000     0.582007000000   
C      0.029866666667     0.280300000000     0.642166666667   
C      0.043400000000     0.239300000000     0.603733333333   
H      0.069614666667     0.237720333333     0.609360333333   
C      0.180566666667     0.241766666667     0.562066666667   
C      0.020733333333     0.257200000000     0.617133333333   
C      0.018766666667     0.223733333333     0.579600000000   
C      0.196866666667     0.280400000000     0.593700000000   
Al     0.245060000000     0.022150000000     0.645003333333   
O      0.207776666667     0.050370000000     0.627153333333   
O      0.216686666667     0.010160000000     0.341186666667   
H      0.229463000000     0.009189333333     0.362663333333   
O      0.270813333333     0.037023333333     0.613736666667   
O      0.282370000000     0.328273333333     0.660420000000   
H      0.274220666667     0.309612666667     0.665681000000   
O      0.110493333333     0.159130000000     0.551850000000   
O      0.269620000000     0.115363333333     0.509093333333   
O      0.153183333333     0.032926666667     0.637366666667   
O      0.160703333333     0.141073333333     0.534966666667   
O      0.330363333333     0.129676666667     0.520656666667   
O      0.330263333333     0.020426666667     0.626810000000   
N      0.015300000000     0.085733333333     0.564866666667   
H      0.034561000000     0.094895000000     0.560508666667   
N      0.115200000000     0.079600000000     0.600000000000   
H      0.099957666667     0.068725000000     0.608199333333   
N      0.104700000000     0.103266666667     0.581033333333   
N      0.017166666667     0.065066666667     0.587533333333   
C      0.172700000000     0.050966666667     0.624766666667   
C      0.304600000000     0.036200000000     0.610866666667   
C      0.135733333333     0.139966666667     0.551733333333   
C      0.167133333333     0.096233333333     0.586866666667   
H      0.192073666667     0.098335333333     0.584659666667   
C      0.303466666667     0.113633333333     0.524500000000   
C      0.289933333333     0.072633333333     0.562933333333   
H      0.263718666667     0.071053666667     0.557306333333   
C      0.152766666667     0.075100000000     0.604600000000   
C      0.312600000000     0.090533333333     0.549533333333   
C      0.314566666667     0.057066666667     0.587066666667   
C      0.136466666667     0.113733333333     0.572966666667   
Al     0.166666666667     0.166666666667     0.833333333333   
Al     0.245060000000     0.144516666667     0.811670000000   
Al     0.000000000000     0.166666666667     0.833333333333   
O      0.207776666667     0.116296666667     0.793820000000   
O      0.216686666667     0.156506666667     0.841186666667   
H      0.229463000000     0.157477333333     0.862663333333   
O      0.270813333333     0.129643333333     0.780403333333   
O      0.282370000000     0.171726666667     0.827086666667   
H      0.274220666667     0.190387333333     0.832347666667   
O      0.110493333333     0.007536666667     0.718516666667   
O      0.269620000000     0.051303333333     0.675760000000   
O      0.153183333333     0.133740000000     0.804033333333   
O      0.160703333333     0.025593333333     0.701633333333   
O      0.330363333333     0.036990000000     0.687323333333   
O      0.330263333333     0.146240000000     0.793476666667   
N      0.015300000000     0.080933333333     0.731533333333   
H      0.034561000000     0.071771666667     0.727175333333   
N      0.115200000000     0.087066666667     0.766666666667   
H      0.099957666667     0.097941666667     0.774866000000   
N      0.104700000000     0.063400000000     0.747700000000   
N      0.017166666667     0.101600000000     0.754200000000   
C      0.172700000000     0.115700000000     0.791433333333   
C      0.304600000000     0.130466666667     0.777533333333   
C      0.135733333333     0.026700000000     0.718400000000   
C      0.167133333333     0.070433333333     0.753533333333   
H      0.192073666667     0.068331333333     0.751326333333   
C      0.303466666667     0.053033333333     0.691166666667   
C      0.289933333333     0.094033333333     0.729600000000   
H      0.263718666667     0.095613000000     0.723973000000   
C      0.152766666667     0.091566666667     0.771266666667   
C      0.312600000000     0.076133333333     0.716200000000   
C      0.314566666667     0.109600000000     0.753733333333   
C      0.136466666667     0.052933333333     0.739633333333   
Al     0.166666666667     0.000000000000     0.666666666667   
Al     0.088273333333     0.311183333333     0.688330000000   
Al     0.000000000000     0.000000000000     0.666666666667   
O      0.125556666667     0.282963333333     0.706180000000   
O      0.116646666667     0.323173333333     0.992146666667   
H      0.103870333333     0.324144000000     0.970670000000   
O      0.062520000000     0.296310000000     0.719596666667   
O      0.050963333333     0.005060000000     0.672913333333   
H      0.059112666667     0.023720666667     0.667652333333   
O      0.222840000000     0.174203333333     0.781483333333   
O      0.063713333333     0.217970000000     0.824240000000   
O      0.180150000000     0.300406666667     0.695966666667   
O      0.172630000000     0.192260000000     0.798366666667   
O      0.002970000000     0.203656666667     0.812676666667   
O      0.003070000000     0.312906666667     0.706523333333   
N      0.318033333333     0.247600000000     0.768466666667   
H      0.298772333333     0.238438333333     0.772824666667   
N      0.218133333333     0.253733333333     0.733333333333   
H      0.233375666667     0.264608333333     0.725134000000   
N      0.228633333333     0.230066666667     0.752300000000   
N      0.316166666667     0.268266666667     0.745800000000   
C      0.160633333333     0.282366666667     0.708566666667   
C      0.028733333333     0.297133333333     0.722466666667   
C      0.197600000000     0.193366666667     0.781600000000   
C      0.166200000000     0.237100000000     0.746466666667   
H      0.141259666667     0.234998000000     0.748673666667   
C      0.029866666667     0.219700000000     0.808833333333   
C      0.043400000000     0.260700000000     0.770400000000   
H      0.069614666667     0.262279666667     0.776027000000   
C      0.180566666667     0.258233333333     0.728733333333   
C      0.020733333333     0.242800000000     0.783800000000   
C      0.018766666667     0.276266666667     0.746266666667   
C      0.196866666667     0.219600000000     0.760366666667   
Al     0.088273333333     0.188816666667     0.854996666667   
O      0.125556666667     0.217036666667     0.872846666667   
O      0.116646666667     0.176826666667     0.825480000000   
H      0.103870333333     0.175856000000     0.804003333333   
O      0.062520000000     0.203690000000     0.886263333333   
O      0.050963333333     0.161606666667     0.839580000000   
H      0.059112666667     0.142946000000     0.834319000000   
O      0.222840000000     0.325796666667     0.948150000000   
O      0.063713333333     0.282030000000     0.990906666667   
O      0.180150000000     0.199593333333     0.862633333333   
O      0.172630000000     0.307740000000     0.965033333333   
O      0.002970000000     0.296343333333     0.979343333333   
O      0.003070000000     0.187093333333     0.873190000000   
N      0.318033333333     0.252400000000     0.935133333333   
H      0.298772333333     0.261561666667     0.939491333333   
N      0.218133333333     0.246266666667     0.900000000000   
H      0.233375666667     0.235391666667     0.891800666667   
N      0.228633333333     0.269933333333     0.918966666667   
N      0.316166666667     0.231733333333     0.912466666667   
C      0.160633333333     0.217633333333     0.875233333333   
C      0.028733333333     0.202866666667     0.889133333333   
C      0.197600000000     0.306633333333     0.948266666667   
C      0.166200000000     0.262900000000     0.913133333333   
H      0.141259666667     0.265002000000     0.915340333333   
C      0.029866666667     0.280300000000     0.975500000000   
C      0.043400000000     0.239300000000     0.937066666667   
H      0.069614666667     0.237720333333     0.942693666667   
C      0.180566666667     0.241766666667     0.895400000000   
C      0.020733333333     0.257200000000     0.950466666667   
C      0.018766666667     0.223733333333     0.912933333333   
C      0.196866666667     0.280400000000     0.927033333333   
Al     0.245060000000     0.022150000000     0.978336666667   
O      0.207776666667     0.050370000000     0.960486666667   
O      0.216686666667     0.010160000000     0.674520000000   
H      0.229463000000     0.009189333333     0.695996666667   
O      0.270813333333     0.037023333333     0.947070000000   
O      0.282370000000     0.328273333333     0.993753333333   
H      0.274220666667     0.309612666667     0.999014333333   
O      0.110493333333     0.159130000000     0.885183333333   
O      0.269620000000     0.115363333333     0.842426666667   
O      0.153183333333     0.032926666667     0.970700000000   
O      0.160703333333     0.141073333333     0.868300000000   
O      0.330363333333     0.129676666667     0.853990000000   
O      0.330263333333     0.020426666667     0.960143333333   
N      0.015300000000     0.085733333333     0.898200000000   
H      0.034561000000     0.094895000000     0.893842000000   
N      0.115200000000     0.079600000000     0.933333333333   
H      0.099957666667     0.068725000000     0.941532666667   
N      0.104700000000     0.103266666667     0.914366666667   
N      0.017166666667     0.065066666667     0.920866666667   
C      0.172700000000     0.050966666667     0.958100000000   
C      0.304600000000     0.036200000000     0.944200000000   
C      0.135733333333     0.139966666667     0.885066666667   
C      0.167133333333     0.096233333333     0.920200000000   
H      0.192073666667     0.098335333333     0.917993000000   
C      0.303466666667     0.113633333333     0.857833333333   
C      0.289933333333     0.072633333333     0.896266666667   
H      0.263718666667     0.071053666667     0.890639666667   
C      0.152766666667     0.075100000000     0.937933333333   
C      0.312600000000     0.090533333333     0.882866666667   
C      0.314566666667     0.057066666667     0.920400000000   
C      0.136466666667     0.113733333333     0.906300000000   
Al     0.166666666667     0.500000000000     0.166666666667   
Al     0.245060000000     0.477850000000     0.145003333333   
Al     0.000000000000     0.500000000000     0.166666666667   
O      0.207776666667     0.449630000000     0.127153333333   
O      0.216686666667     0.489840000000     0.174520000000   
H      0.229463000000     0.490810666667     0.195996666667   
O      0.270813333333     0.462976666667     0.113736666667   
O      0.282370000000     0.505060000000     0.160420000000   
H      0.274220666667     0.523720666667     0.165681000000   
O      0.110493333333     0.340870000000     0.051850000000   
O      0.269620000000     0.384636666667     0.009093333333   
O      0.153183333333     0.467073333333     0.137366666667   
O      0.160703333333     0.358926666667     0.034966666667   
O      0.330363333333     0.370323333333     0.020656666667   
O      0.330263333333     0.479573333333     0.126810000000   
N      0.015300000000     0.414266666667     0.064866666667   
H      0.034561000000     0.405105000000     0.060508666667   
N      0.115200000000     0.420400000000     0.100000000000   
H      0.099957666667     0.431275000000     0.108199333333   
N      0.104700000000     0.396733333333     0.081033333333   
N      0.017166666667     0.434933333333     0.087533333333   
C      0.172700000000     0.449033333333     0.124766666667   
C      0.304600000000     0.463800000000     0.110866666667   
C      0.135733333333     0.360033333333     0.051733333333   
C      0.167133333333     0.403766666667     0.086866666667   
H      0.192073666667     0.401664666667     0.084659666667   
C      0.303466666667     0.386366666667     0.024500000000   
C      0.289933333333     0.427366666667     0.062933333333   
H      0.263718666667     0.428946333333     0.057306333333   
C      0.152766666667     0.424900000000     0.104600000000   
C      0.312600000000     0.409466666667     0.049533333333   
C      0.314566666667     0.442933333333     0.087066666667   
C      0.136466666667     0.386266666667     0.072966666667   
Al     0.166666666667     0.333333333333     0.000000000000   
Al     0.088273333333     0.644516666667     0.021663333333   
Al     0.000000000000     0.333333333333     0.000000000000   
O      0.125556666667     0.616296666667     0.039513333333   
O      0.116646666667     0.656506666667     0.325480000000   
H      0.103870333333     0.657477333333     0.304003333333   
O      0.062520000000     0.629643333333     0.052930000000   
O      0.050963333333     0.338393333333     0.006246666667   
H      0.059112666667     0.357054000000     0.000985666667   
O      0.222840000000     0.507536666667     0.114816666667   
O      0.063713333333     0.551303333333     0.157573333333   
O      0.180150000000     0.633740000000     0.029300000000   
O      0.172630000000     0.525593333333     0.131700000000   
O      0.002970000000     0.536990000000     0.146010000000   
O      0.003070000000     0.646240000000     0.039856666667   
N      0.318033333333     0.580933333333     0.101800000000   
H      0.298772333333     0.571771666667     0.106158000000   
N      0.218133333333     0.587066666667     0.066666666667   
H      0.233375666667     0.597941666667     0.058467333333   
N      0.228633333333     0.563400000000     0.085633333333   
N      0.316166666667     0.601600000000     0.079133333333   
C      0.160633333333     0.615700000000     0.041900000000   
C      0.028733333333     0.630466666667     0.055800000000   
C      0.197600000000     0.526700000000     0.114933333333   
C      0.166200000000     0.570433333333     0.079800000000   
H      0.141259666667     0.568331333333     0.082007000000   
C      0.029866666667     0.553033333333     0.142166666667   
C      0.043400000000     0.594033333333     0.103733333333   
H      0.069614666667     0.595613000000     0.109360333333   
C      0.180566666667     0.591566666667     0.062066666667   
C      0.020733333333     0.576133333333     0.117133333333   
C      0.018766666667     0.609600000000     0.079600000000   
C      0.196866666667     0.552933333333     0.093700000000   
Al     0.088273333333     0.522150000000     0.188330000000   
O      0.125556666667     0.550370000000     0.206180000000   
O      0.116646666667     0.510160000000     0.158813333333   
H      0.103870333333     0.509189333333     0.137336666667   
O      0.062520000000     0.537023333333     0.219596666667   
O      0.050963333333     0.494940000000     0.172913333333   
H      0.059112666667     0.476279333333     0.167652333333   
O      0.222840000000     0.659130000000     0.281483333333   
O      0.063713333333     0.615363333333     0.324240000000   
O      0.180150000000     0.532926666667     0.195966666667   
O      0.172630000000     0.641073333333     0.298366666667   
O      0.002970000000     0.629676666667     0.312676666667   
O      0.003070000000     0.520426666667     0.206523333333   
N      0.318033333333     0.585733333333     0.268466666667   
H      0.298772333333     0.594895000000     0.272824666667   
N      0.218133333333     0.579600000000     0.233333333333   
H      0.233375666667     0.568725000000     0.225134000000   
N      0.228633333333     0.603266666667     0.252300000000   
N      0.316166666667     0.565066666667     0.245800000000   
C      0.160633333333     0.550966666667     0.208566666667   
C      0.028733333333     0.536200000000     0.222466666667   
C      0.197600000000     0.639966666667     0.281600000000   