%BLOCK LATTICE_CART
ang    # angstrom units
  6.841900000000     0.000000000000     0.000000000000   
  0.000000000000     12.087700000000    0.000000000000   
 -7.643241908996     0.000000000000     11.975796512991  
%ENDBLOCK LATTICE_CART

%BLOCK POSITIONS_FRAC
Al     0.125000000000     0.125000000000     0.000000000000   
Al     0.000000000000     0.125000000000     0.000000000000   
O      0.045030000000     0.129327500000     0.235037500000   
O      0.061762500000     0.100037500000     0.028977500000   
O      0.134610000000     0.092192500000     0.021095000000   
O      0.112650000000     0.023325000000     0.094917500000   
O      0.195690000000     0.028335000000     0.099855000000   
C      0.107442500000     0.086747500000     0.033455000000   
C      0.138610000000     0.066240000000     0.055507500000   
C      0.113945000000     0.056980000000     0.068452500000   
C      0.144672500000     0.035247500000     0.090100000000   
H      0.182420000000     0.058042500000     0.060765000000   
H      0.069430000000     0.064467500000     0.062905000000   
H      0.019262500000     0.118605000000     0.217335000000   
Al     0.125000000000     0.000000000000     0.125000000000   
Al     0.000000000000     0.000000000000     0.125000000000   
O      0.204970000000     0.004327500000     0.139962500000   
O      0.188237500000     0.225037500000     0.096022500000   
O      0.115390000000     0.217192500000     0.103905000000   
O      0.137350000000     0.148325000000     0.030082500000   
O      0.054310000000     0.153335000000     0.025145000000   
C      0.142557500000     0.211747500000     0.091545000000   
C      0.111390000000     0.191240000000     0.069492500000   
C      0.136055000000     0.181980000000     0.056547500000   
C      0.105327500000     0.160247500000     0.034900000000   
H      0.067580000000     0.183042500000     0.064235000000   
H      0.180570000000     0.189467500000     0.062095000000   
H      0.230737500000     0.243605000000     0.157665000000   
O      0.204970000000     0.120672500000     0.014962500000   
O      0.188237500000     0.149962500000     0.221022500000   
O      0.115390000000     0.157807500000     0.228905000000   
O      0.137350000000     0.226675000000     0.155082500000   
O      0.054310000000     0.221665000000     0.150145000000   
C      0.142557500000     0.163252500000     0.216545000000   
C      0.111390000000     0.183760000000     0.194492500000   
C      0.136055000000     0.193020000000     0.181547500000   
C      0.105327500000     0.214752500000     0.159900000000   
H      0.067580000000     0.191957500000     0.189235000000   
H      0.180570000000     0.185532500000     0.187095000000   
H      0.230737500000     0.131395000000     0.032665000000   
O      0.045030000000     0.245672500000     0.110037500000   
O      0.061762500000     0.024962500000     0.153977500000   
O      0.134610000000     0.032807500000     0.146095000000   
O      0.112650000000     0.101675000000     0.219917500000   
O      0.195690000000     0.096665000000     0.224855000000   
C      0.107442500000     0.038252500000     0.158455000000   
C      0.138610000000     0.058760000000     0.180507500000   
C      0.113945000000     0.068020000000     0.193452500000   
C      0.144672500000     0.089752500000     0.215100000000   
H      0.182420000000     0.066957500000     0.185765000000   
H      0.069430000000     0.060532500000     0.187905000000   
H      0.019262500000     0.006395000000     0.092335000000   
Al     0.125000000000     0.125000000000     0.250000000000   
Al     0.000000000000     0.125000000000     0.250000000000   
O      0.045030000000     0.129327500000     0.485037500000   
O      0.061762500000     0.100037500000     0.278977500000   
O      0.134610000000     0.092192500000     0.271095000000   
O      0.112650000000     0.023325000000     0.344917500000   
O      0.195690000000     0.028335000000     0.349855000000   
C      0.107442500000     0.086747500000     0.283455000000   
C      0.138610000000     0.066240000000     0.305507500000   
C      0.113945000000     0.056980000000     0.318452500000   
C      0.144672500000     0.035247500000     0.340100000000   
H      0.182420000000     0.058042500000     0.310765000000   
H      0.069430000000     0.064467500000     0.312905000000   
H      0.019262500000     0.118605000000     0.467335000000   
Al     0.125000000000     0.000000000000     0.375000000000   
Al     0.000000000000     0.000000000000     0.375000000000   
O      0.204970000000     0.004327500000     0.389962500000   
O      0.188237500000     0.225037500000     0.346022500000   
O      0.115390000000     0.217192500000     0.353905000000   
O      0.137350000000     0.148325000000     0.280082500000   
O      0.054310000000     0.153335000000     0.275145000000   
C      0.142557500000     0.211747500000     0.341545000000   
C      0.111390000000     0.191240000000     0.319492500000   
C      0.136055000000     0.181980000000     0.306547500000   
C      0.105327500000     0.160247500000     0.284900000000   
H      0.067580000000     0.183042500000     0.314235000000   
H      0.180570000000     0.189467500000     0.312095000000   
H      0.230737500000     0.243605000000     0.407665000000   
O      0.204970000000     0.120672500000     0.264962500000   
O      0.188237500000     0.149962500000     0.471022500000   
O      0.115390000000     0.157807500000     0.478905000000   
O      0.137350000000     0.226675000000     0.405082500000   
O      0.054310000000     0.221665000000     0.400145000000   
C      0.142557500000     0.163252500000     0.466545000000   
C      0.111390000000     0.183760000000     0.444492500000   
C      0.136055000000     0.193020000000     0.431547500000   
C      0.105327500000     0.214752500000     0.409900000000   
H      0.067580000000     0.191957500000     0.439235000000   
H      0.180570000000     0.185532500000     0.437095000000   
H      0.230737500000     0.131395000000     0.282665000000   
O      0.045030000000     0.245672500000     0.360037500000   
O      0.061762500000     0.024962500000     0.403977500000   
O      0.134610000000     0.032807500000     0.396095000000   
O      0.112650000000     0.101675000000     0.469917500000   
O      0.195690000000     0.096665000000     0.474855000000   
C      0.107442500000     0.038252500000     0.408455000000   
C      0.138610000000     0.058760000000     0.430507500000   
C      0.113945000000     0.068020000000     0.443452500000   
C      0.144672500000     0.089752500000     0.465100000000   
H      0.182420000000     0.066957500000     0.435765000000   
H      0.069430000000     0.060532500000     0.437905000000   
H      0.019262500000     0.006395000000     0.342335000000   
Al     0.125000000000     0.125000000000     0.500000000000   
Al     0.000000000000     0.125000000000     0.500000000000   
O      0.045030000000     0.129327500000     0.735037500000   
O      0.061762500000     0.100037500000     0.528977500000   
O      0.134610000000     0.092192500000     0.521095000000   
O      0.112650000000     0.023325000000     0.594917500000   
O      0.195690000000     0.028335000000     0.599855000000   
C      0.107442500000     0.086747500000     0.533455000000   
C      0.138610000000     0.066240000000     0.555507500000   
C      0.113945000000     0.056980000000     0.568452500000   
C      0.144672500000     0.035247500000     0.590100000000   
H      0.182420000000     0.058042500000     0.560765000000   
H      0.069430000000     0.064467500000     0.562905000000   
H      0.019262500000     0.118605000000     0.717335000000   
Al     0.125000000000     0.000000000000     0.625000000000   
Al     0.000000000000     0.000000000000     0.625000000000   
O      0.204970000000     0.004327500000     0.639962500000   
O      0.188237500000     0.225037500000     0.596022500000   
O      0.115390000000     0.217192500000     0.603905000000   
O      0.137350000000     0.148325000000     0.530082500000   
O      0.054310000000     0.153335000000     0.525145000000   
C      0.142557500000     0.211747500000     0.591545000000   
C      0.111390000000     0.191240000000     0.569492500000   
C      0.136055000000     0.181980000000     0.556547500000   
C      0.105327500000     0.160247500000     0.534900000000   
H      0.067580000000     0.183042500000     0.564235000000   
H      0.180570000000     0.189467500000     0.562095000000   
H      0.230737500000     0.243605000000     0.657665000000   
O      0.204970000000     0.120672500000     0.514962500000   
O      0.188237500000     0.149962500000     0.721022500000   
O      0.115390000000     0.157807500000     0.728905000000   
O      0.137350000000     0.226675000000     0.655082500000   
O      0.054310000000     0.221665000000     0.650145000000   
C      0.142557500000     0.163252500000     0.716545000000   
C      0.111390000000     0.183760000000     0.694492500000   
C      0.136055000000     0.193020000000     0.681547500000   
C      0.105327500000     0.214752500000     0.659900000000   
H      0.067580000000     0.191957500000     0.689235000000   
H      0.180570000000     0.185532500000     0.687095000000   
H      0.230737500000     0.131395000000     0.532665000000   
O      0.045030000000     0.245672500000     0.610037500000   
O      0.061762500000     0.024962500000     0.653977500000   
O      0.134610000000     0.032807500000     0.646095000000   
O      0.112650000000     0.101675000000     0.719917500000   
O      0.195690000000     0.096665000000     0.724855000000   
C      0.107442500000     0.038252500000     0.658455000000   
C      0.138610000000     0.058760000000     0.680507500000   
C      0.113945000000     0.068020000000     0.693452500000   
C      0.144672500000     0.089752500000     0.715100000000   
H      0.182420000000     0.066957500000     0.685765000000   
H      0.069430000000     0.060532500000     0.687905000000   
H      0.019262500000     0.006395000000     0.592335000000   
Al     0.125000000000     0.125000000000     0.750000000000   
Al     0.000000000000     0.125000000000     0.750000000000   
O      0.045030000000     0.129327500000     0.985037500000   
O      0.061762500000     0.100037500000     0.778977500000   
O      0.134610000000     0.092192500000     0.771095000000   
O      0.112650000000     0.023325000000     0.844917500000   
O      0.195690000000     0.028335000000     0.849855000000   
C      0.107442500000     0.086747500000     0.783455000000   
C      0.138610000000     0.066240000000     0.805507500000   
C      0.113945000000     0.056980000000     0.818452500000   
C      0.144672500000     0.035247500000     0.840100000000   
H      0.182420000000     0.058042500000     0.810765000000   
H      0.069430000000     0.064467500000     0.812905000000   
H      0.019262500000     0.118605000000     0.967335000000   
Al     0.125000000000     0.000000000000     0.875000000000   
Al     0.000000000000     0.000000000000     0.875000000000   
O      0.204970000000     0.004327500000     0.889962500000   
O      0.188237500000     0.225037500000     0.846022500000   
O      0.115390000000     0.217192500000     0.853905000000   
O      0.137350000000     0.148325000000     0.780082500000   
O      0.054310000000     0.153335000000     0.775145000000   
C      0.142557500000     0.211747500000     0.841545000000   
C      0.111390000000     0.191240000000     0.819492500000   
C      0.136055000000     0.181980000000     0.806547500000   
C      0.105327500000     0.160247500000     0.784900000000   
H      0.067580000000     0.183042500000     0.814235000000   
H      0.180570000000     0.189467500000     0.812095000000   
H      0.230737500000     0.243605000000     0.907665000000   
O      0.204970000000     0.120672500000     0.764962500000   
O      0.188237500000     0.149962500000     0.971022500000   
O      0.115390000000     0.157807500000     0.978905000000   
O      0.137350000000     0.226675000000     0.905082500000   
O      0.054310000000     0.221665000000     0.900145000000   
C      0.142557500000     0.163252500000     0.966545000000   
C      0.111390000000     0.183760000000     0.944492500000   
C      0.136055000000     0.193020000000     0.931547500000   
C      0.105327500000     0.214752500000     0.909900000000   
H      0.067580000000     0.191957500000     0.939235000000   
H      0.180570000000     0.185532500000     0.937095000000   
H      0.230737500000     0.131395000000     0.782665000000   
O      0.045030000000     0.245672500000     0.860037500000   
O      0.061762500000     0.024962500000     0.903977500000   
O      0.134610000000     0.032807500000     0.896095000000   
O      0.112650000000     0.101675000000     0.969917500000   
O      0.195690000000     0.096665000000     0.974855000000   
C      0.107442500000     0.038252500000     0.908455000000   
C      0.138610000000     0.058760000000     0.930507500000   
C      0.113945000000     0.068020000000     0.943452500000   
C      0.144672500000     0.089752500000     0.965100000000   
H      0.182420000000     0.066957500000     0.935765000000   
H      0.069430000000     0.060532500000     0.937905000000   
H      0.019262500000     0.006395000000     0.842335000000   
Al     0.125000000000     0.375000000000     0.000000000000   
Al     0.000000000000     0.375000000000     0.000000000000   
O      0.045030000000     0.379327500000     0.235037500000   
O      0.061762500000     0.350037500000     0.028977500000   
O      0.134610000000     0.342192500000     0.021095000000   
O      0.112650000000     0.273325000000     0.094917500000   
O      0.195690000000     0.278335000000     0.099855000000   
C      0.107442500000     0.336747500000     0.033455000000   
C      0.138610000000     0.316240000000     0.055507500000   
C      0.113945000000     0.306980000000     0.068452500000   
C      0.144672500000     0.285247500000     0.090100000000   
H      0.182420000000     0.308042500000     0.060765000000   
H      0.069430000000     0.314467500000     0.062905000000   
H      0.019262500000     0.368605000000     0.217335000000   
Al     0.125000000000     0.250000000000     0.125000000000   
Al     0.000000000000     0.250000000000     0.125000000000   
O      0.204970000000     0.254327500000     0.139962500000   
O      0.188237500000     0.475037500000     0.096022500000   
O      0.115390000000     0.467192500000     0.103905000000   
O      0.137350000000     0.398325000000     0.030082500000   
O      0.054310000000     0.403335000000     0.025145000000   
C      0.142557500000     0.461747500000     0.091545000000   
C      0.111390000000     0.441240000000     0.069492500000   
C      0.136055000000     0.431980000000     0.056547500000   
C      0.105327500000     0.410247500000     0.034900000000   
H      0.067580000000     0.433042500000     0.064235000000   
H      0.180570000000     0.439467500000     0.062095000000   
H      0.230737500000     0.493605000000     0.157665000000   
O      0.204970000000     0.370672500000     0.014962500000   
O      0.188237500000     0.399962500000     0.221022500000   
O      0.115390000000     0.407807500000     0.228905000000   
O      0.137350000000     0.476675000000     0.155082500000   
O      0.054310000000     0.471665000000     0.150145000000   
C      0.142557500000     0.413252500000     0.216545000000   
C      0.111390000000     0.433760000000     0.194492500000   
C      0.136055000000     0.443020000000     0.181547500000   
C      0.105327500000     0.464752500000     0.159900000000   
H      0.067580000000     0.441957500000     0.189235000000   
H      0.180570000000     0.435532500000     0.187095000000   
H      0.230737500000     0.381395000000     0.032665000000   
O      0.045030000000     0.495672500000     0.110037500000   
O      0.061762500000     0.274962500000     0.153977500000   
O      0.134610000000     0.282807500000     0.146095000000   
O      0.112650000000     0.351675000000     0.219917500000   
O      0.195690000000     0.346665000000     0.224855000000   
C      0.107442500000     0.288252500000     0.158455000000   
C      0.138610000000     0.308760000000     0.180507500000   
C      0.113945000000     0.318020000000     0.193452500000   
C      0.144672500000     0.339752500000     0.215100000000   
H      0.182420000000     0.316957500000     0.185765000000   
H      0.069430000000     0.310532500000     0.187905000000   
H      0.019262500000     0.256395000000     0.092335000000   
Al     0.125000000000     0.375000000000     0.250000000000   
Al     0.000000000000     0.375000000000     0.250000000000   
O      0.045030000000     0.379327500000     0.485037500000   
O      0.061762500000     0.350037500000     0.278977500000   
O      0.134610000000     0.342192500000     0.271095000000   
O      0.112650000000     0.273325000000     0.344917500000   
O      0.195690000000     0.278335000000     0.349855000000   
C      0.107442500000     0.336747500000     0.283455000000   
C      0.138610000000     0.316240000000     0.305507500000   
C      0.113945000000     0.306980000000     0.318452500000   
C      0.144672500000     0.285247500000     0.340100000000   
H      0.182420000000     0.308042500000     0.310765000000   
H      0.069430000000     0.314467500000     0.312905000000   
H      0.019262500000     0.368605000000     0.467335000000   
Al     0.125000000000     0.250000000000     0.375000000000   
Al     0.000000000000     0.250000000000     0.375000000000   
O      0.204970000000     0.254327500000     0.389962500000   
O      0.188237500000     0.475037500000     0.346022500000   
O      0.115390000000     0.467192500000     0.353905000000   
O      0.137350000000     0.398325000000     0.280082500000   
O      0.054310000000     0.403335000000     0.275145000000   
C      0.142557500000     0.461747500000     0.341545000000   
C      0.111390000000     0.441240000000     0.319492500000   
C      0.136055000000     0.431980000000     0.306547500000   
C      0.105327500000     0.410247500000     0.284900000000   
H      0.067580000000     0.433042500000     0.314235000000   
H      0.180570000000     0.439467500000     0.312095000000   
H      0.230737500000     0.493605000000     0.407665000000   
O      0.204970000000     0.370672500000     0.264962500000   
O      0.188237500000     0.399962500000     0.471022500000   
O      0.115390000000     0.407807500000     0.478905000000   
O      0.137350000000     0.476675000000     0.405082500000   
O      0.054310000000     0.471665000000     0.400145000000   
C      0.142557500000     0.413252500000     0.466545000000   
C      0.111390000000     0.433760000000     0.444492500000   
C      0.136055000000     0.443020000000     0.431547500000   
C      0.105327500000     0.464752500000     0.409900000000   
H      0.067580000000     0.441957500000     0.439235000000   
H      0.180570000000     0.435532500000     0.437095000000   
H      0.230737500000     0.381395000000     0.282665000000   
O      0.045030000000     0.495672500000     0.360037500000   
O      0.061762500000     0.274962500000     0.403977500000   
O      0.134610000000     0.282807500000     0.396095000000   
O      0.112650000000     0.351675000000     0.469917500000   
O      0.195690000000     0.346665000000     0.474855000000   
C      0.107442500000     0.288252500000     0.408455000000   
C      0.138610000000     0.308760000000     0.430507500000   
C      0.113945000000     0.318020000000     0.443452500000   
C      0.144672500000     0.339752500000     0.465100000000   
H      0.182420000000     0.316957500000     0.435765000000   
H      0.069430000000     0.310532500000     0.437905000000   
H      0.019262500000     0.256395000000     0.342335000000   
Al     0.125000000000     0.375000000000     0.500000000000   
Al     0.000000000000     0.375000000000     0.500000000000   
O      0.045030000000     0.379327500000     0.735037500000   
O      0.061762500000     0.350037500000     0.528977500000   
O      0.134610000000     0.342192500000     0.521095000000   
O      0.112650000000     0.273325000000     0.594917500000   
O      0.195690000000     0.278335000000     0.599855000000   
C      0.107442500000     0.336747500000     0.533455000000   
C      0.138610000000     0.316240000000     0.555507500000   
C      0.113945000000     0.306980000000     0.568452500000   
C      0.144672500000     0.285247500000     0.590100000000   
H      0.182420000000     0.308042500000     0.560765000000   
H      0.069430000000     0.314467500000     0.562905000000   
H      0.019262500000     0.368605000000     0.717335000000   
Al     0.125000000000     0.250000000000     0.625000000000   
Al     0.000000000000     0.250000000000     0.625000000000   
O      0.204970000000     0.254327500000     0.639962500000   
O      0.188237500000     0.475037500000     0.596022500000   
O      0.115390000000     0.467192500000     0.603905000000   
O      0.137350000000     0.398325000000     0.530082500000   
O      0.054310000000     0.403335000000     0.525145000000   
C      0.142557500000     0.461747500000     0.591545000000   
C      0.111390000000     0.441240000000     0.569492500000   
C      0.136055000000     0.431980000000     0.556547500000   
C      0.105327500000     0.410247500000     0.534900000000   
H      0.067580000000     0.433042500000     0.564235000000   
H      0.180570000000     0.439467500000     0.562095000000   
H      0.230737500000     0.493605000000     0.657665000000   
O      0.204970000000     0.370672500000     0.514962500000   
O      0.188237500000     0.399962500000     0.721022500000   
O      0.115390000000     0.407807500000     0.728905000000   
O      0.137350000000     0.476675000000     0.655082500000   
O      0.054310000000     0.471665000000     0.650145000000   
C      0.142557500000     0.413252500000     0.716545000000   
C      0.111390000000     0.433760000000     0.694492500000   
C      0.136055000000     0.443020000000     0.681547500000   
C      0.105327500000     0.464752500000     0.659900000000   
H      0.067580000000     0.441957500000     0.689235000000   
H      0.180570000000     0.435532500000     0.687095000000   
H      0.230737500000     0.381395000000     0.532665000000   
O      0.045030000000     0.495672500000     0.610037500000   
O      0.061762500000     0.274962500000     0.653977500000   
O      0.134610000000     0.282807500000     0.646095000000   
O      0.112650000000     0.351675000000     0.719917500000   
O      0.195690000000     0.346665000000     0.724855000000   
C      0.107442500000     0.288252500000     0.658455000000   
C      0.138610000000     0.308760000000     0.680507500000   
C      0.113945000000     0.318020000000     0.693452500000   
C      0.144672500000     0.339752500000     0.715100000000   
H      0.182420000000     0.316957500000     0.685765000000   
H      0.069430000000     0.310532500000     0.687905000000   
H      0.019262500000     0.256395000000     0.592335000000   
Al     0.125000000000     0.375000000000     0.750000000000   
Al     0.000000000000     0.375000000000     0.750000000000   
O      0.045030000000     0.379327500000     0.985037500000   
O      0.061762500000     0.350037500000     0.778977500000   
O      0.134610000000     0.342192500000     0.771095000000   
O      0.112650000000     0.273325000000     0.844917500000   
O      0.195690000000     0.278335000000     0.849855000000   
C      0.107442500000     0.336747500000     0.783455000000   
C      0.138610000000     0.316240000000     0.805507500000   
C      0.113945000000     0.306980000000     0.818452500000   
C      0.144672500000     0.285247500000     0.840100000000   
H      0.182420000000     0.308042500000     0.810765000000   
H      0.069430000000     0.314467500000     0.812905000000   
H      0.019262500000     0.368605000000     0.967335000000   
Al     0.125000000000     0.250000000000     0.875000000000   
Al     0.000000000000     0.250000000000     0.875000000000   
O      0.204970000000     0.254327500000     0.889962500000   
O      0.188237500000     0.475037500000     0.846022500000   
O      0.115390000000     0.467192500000     0.853905000000   
O      0.137350000000     0.398325000000     0.780082500000   
O      0.054310000000     0.403335000000     0.775145000000   
C      0.142557500000     0.461747500000     0.841545000000   
C      0.111390000000     0.441240000000     0.819492500000   
C      0.136055000000     0.431980000000     0.806547500000   
C      0.105327500000     0.410247500000     0.784900000000   
H      0.067580000000     0.433042500000     0.814235000000   
H      0.180570000000     0.439467500000     0.812095000000   
H      0.230737500000     0.493605000000     0.907665000000   
O      0.204970000000     0.370672500000     0.764962500000   
O      0.188237500000     0.399962500000     0.971022500000   
O      0.115390000000     0.407807500000     0.978905000000   
O      0.137350000000     0.476675000000     0.905082500000   
O      0.054310000000     0.471665000000     0.900145000000   
C      0.142557500000     0.413252500000     0.966545000000   
C      0.111390000000     0.433760000000     0.944492500000   
C      0.136055000000     0.443020000000     0.931547500000   
C      0.105327500000     0.464752500000     0.909900000000   
H      0.067580000000     0.441957500000     0.939235000000   
H      0.180570000000     0.435532500000     0.937095000000   
H      0.230737500000     0.381395000000     0.782665000000   
O      0.045030000000     0.495672500000     0.860037500000   
O      0.061762500000     0.274962500000     0.903977500000   
O      0.134610000000     0.282807500000     0.896095000000   
O      0.112650000000     0.351675000000     0.969917500000   
O      0.195690000000     0.346665000000     0.974855000000   
C      0.107442500000     0.288252500000     0.908455000000   
C      0.138610000000     0.308760000000     0.930507500000   
C      0.113945000000     0.318020000000     0.943452500000   
C      0.144672500000     0.339752500000     0.965100000000   
H      0.182420000000     0.316957500000     0.935765000000   
H      0.069430000000     0.310532500000     0.937905000000   
H      0.019262500000     0.256395000000     0.842335000000   
Al     0.125000000000     0.625000000000     0.000000000000   
Al     0.000000000000     0.625000000000     0.000000000000   
O      0.045030000000     0.629327500000     0.235037500000   
O      0.061762500000     0.600037500000     0.028977500000   
O      0.134610000000     0.592192500000     0.021095000000   
O      0.112650000000     0.523325000000     0.094917500000   
O      0.195690000000     0.528335000000     0.099855000000   
C      0.107442500000     0.586747500000     0.033455000000   
C      0.138610000000     0.566240000000     0.055507500000   
C      0.113945000000     0.556980000000     0.068452500000   
C      0.144672500000     0.535247500000     0.090100000000   
H      0.182420000000     0.558042500000     0.060765000000   
H      0.069430000000     0.564467500000     0.062905000000   
H      0.019262500000     0.618605000000     0.217335000000   
Al     0.125000000000     0.500000000000     0.125000000000   
Al     0.000000000000     0.500000000000     0.125000000000   
O      0.204970000000     0.504327500000     0.139962500000   
O      0.188237500000     0.725037500000     0.096022500000   
O      0.115390000000     0.717192500000     0.103905000000   
O      0.137350000000     0.648325000000     0.030082500000   
O      0.054310000000     0.653335000000     0.025145000000   
C      0.142557500000     0.711747500000     0.091545000000   
C      0.111390000000     0.691240000000     0.069492500000   
C      0.136055000000     0.681980000000     0.056547500000   
C      0.105327500000     0.660247500000     0.034900000000   
H      0.067580000000     0.683042500000     0.064235000000   
H      0.180570000000     0.689467500000     0.062095000000   
H      0.230737500000     0.743605000000     0.157665000000   
O      0.204970000000     0.620672500000     0.014962500000   
O      0.188237500000     0.649962500000     0.221022500000   
O      0.115390000000     0.657807500000     0.228905000000   
O      0.137350000000     0.726675000000     0.155082500000   
O      0.054310000000     0.721665000000     0.150145000000   
C      0.142557500000     0.663252500000     0.216545000000   
C      0.111390000000     0.683760000000     0.194492500000   
C      0.136055000000     0.693020000000     0.181547500000   
C      0.105327500000     0.714752500000     0.159900000000   
H      0.067580000000     0.691957500000     0.189235000000   
H      0.180570000000     0.685532500000     0.187095000000   
H      0.230737500000     0.631395000000     0.032665000000   
O      0.045030000000     0.745672500000     0.110037500000   
O      0.061762500000     0.524962500000     0.153977500000   
O      0.134610000000     0.532807500000     0.146095000000   
O      0.112650000000     0.601675000000     0.219917500000   
O      0.195690000000     0.596665000000     0.224855000000   
C      0.107442500000     0.538252500000     0.158455000000   
C      0.138610000000     0.558760000000     0.180507500000   
C      0.113945000000     0.568020000000     0.193452500000   
C      0.144672500000     0.589752500000     0.215100000000   
H      0.182420000000     0.566957500000     0.185765000000   
H      0.069430000000     0.560532500000     0.187905000000   
H      0.019262500000     0.506395000000     0.092335000000   
Al     0.125000000000     0.625000000000     0.250000000000   
Al     0.000000000000     0.625000000000     0.250000000000   
O      0.045030000000     0.629327500000     0.485037500000   
O      0.061762500000     0.600037500000     0.278977500000   