%BLOCK LATTICE_CART
ang    # angstrom units
  12.043800000000    0.000000000000     0.000000000000   
  0.000000000000     14.964900000000    0.000000000000   
 -2.910203910609     0.000000000000     13.775348182847  
%ENDBLOCK LATTICE_CART

%BLOCK POSITIONS_FRAC
Al     0.250000000000     0.250000000000     0.250000000000   
Al     0.367590000000     0.216775000000     0.217505000000   
Al     0.000000000000     0.250000000000     0.250000000000   
O      0.311665000000     0.174445000000     0.190730000000   
O      0.325030000000     0.234760000000     0.261780000000   
H      0.344194500000     0.236216000000     0.293995000000   
O      0.406220000000     0.194465000000     0.170605000000   
O      0.423555000000     0.257590000000     0.240630000000   
H      0.411331000000     0.285581000000     0.248521500000   
O      0.165740000000     0.011305000000     0.077775000000   
O      0.404430000000     0.076955000000     0.013640000000   
O      0.229775000000     0.200610000000     0.206050000000   
O      0.241055000000     0.038390000000     0.052450000000   
O      0.495545000000     0.055485000000     0.030985000000   
O      0.495395000000     0.219360000000     0.190215000000   
N      0.022950000000     0.121400000000     0.097300000000   
H      0.051841500000     0.107657500000     0.090763000000   
N      0.172800000000     0.130600000000     0.150000000000   
H      0.149936500000     0.146912500000     0.162299000000   
N      0.157050000000     0.095100000000     0.121550000000   
N      0.025750000000     0.152400000000     0.131300000000   
C      0.259050000000     0.173550000000     0.187150000000   
C      0.456900000000     0.195700000000     0.166300000000   
C      0.203600000000     0.040050000000     0.077600000000   
C      0.250700000000     0.105650000000     0.130300000000   
H      0.288110500000     0.102497000000     0.126989500000   
C      0.455200000000     0.079550000000     0.036750000000   
C      0.434900000000     0.141050000000     0.094400000000   
H      0.395578000000     0.143419500000     0.085959500000   
C      0.229150000000     0.137350000000     0.156900000000   
C      0.468900000000     0.114200000000     0.074300000000   
C      0.471850000000     0.164400000000     0.130600000000   
C      0.204700000000     0.079400000000     0.109450000000   
Al     0.250000000000     0.000000000000     0.000000000000   
Al     0.132410000000     0.466775000000     0.032495000000   
Al     0.000000000000     0.000000000000     0.000000000000   
O      0.188335000000     0.424445000000     0.059270000000   
O      0.174970000000     0.484760000000     0.488220000000   
H      0.155805500000     0.486216000000     0.456005000000   
O      0.093780000000     0.444465000000     0.079395000000   
O      0.076445000000     0.007590000000     0.009370000000   
H      0.088669000000     0.035581000000     0.001478500000   
O      0.334260000000     0.261305000000     0.172225000000   
O      0.095570000000     0.326955000000     0.236360000000   
O      0.270225000000     0.450610000000     0.043950000000   
O      0.258945000000     0.288390000000     0.197550000000   
O      0.004455000000     0.305485000000     0.219015000000   
O      0.004605000000     0.469360000000     0.059785000000   
N      0.477050000000     0.371400000000     0.152700000000   
H      0.448158500000     0.357657500000     0.159237000000   
N      0.327200000000     0.380600000000     0.100000000000   
H      0.350063500000     0.396912500000     0.087701000000   
N      0.342950000000     0.345100000000     0.128450000000   
N      0.474250000000     0.402400000000     0.118700000000   
C      0.240950000000     0.423550000000     0.062850000000   
C      0.043100000000     0.445700000000     0.083700000000   
C      0.296400000000     0.290050000000     0.172400000000   
C      0.249300000000     0.355650000000     0.119700000000   
H      0.211889500000     0.352497000000     0.123010500000   
C      0.044800000000     0.329550000000     0.213250000000   
C      0.065100000000     0.391050000000     0.155600000000   
H      0.104422000000     0.393419500000     0.164040500000   
C      0.270850000000     0.387350000000     0.093100000000   
C      0.031100000000     0.364200000000     0.175700000000   
C      0.028150000000     0.414400000000     0.119400000000   
C      0.295300000000     0.329400000000     0.140550000000   
Al     0.132410000000     0.283225000000     0.282495000000   
O      0.188335000000     0.325555000000     0.309270000000   
O      0.174970000000     0.265240000000     0.238220000000   
H      0.155805500000     0.263784000000     0.206005000000   
O      0.093780000000     0.305535000000     0.329395000000   
O      0.076445000000     0.242410000000     0.259370000000   
H      0.088669000000     0.214419000000     0.251478500000   
O      0.334260000000     0.488695000000     0.422225000000   
O      0.095570000000     0.423045000000     0.486360000000   
O      0.270225000000     0.299390000000     0.293950000000   
O      0.258945000000     0.461610000000     0.447550000000   
O      0.004455000000     0.444515000000     0.469015000000   
O      0.004605000000     0.280640000000     0.309785000000   
N      0.477050000000     0.378600000000     0.402700000000   
H      0.448158500000     0.392342500000     0.409237000000   
N      0.327200000000     0.369400000000     0.350000000000   
H      0.350063500000     0.353087500000     0.337701000000   
N      0.342950000000     0.404900000000     0.378450000000   
N      0.474250000000     0.347600000000     0.368700000000   
C      0.240950000000     0.326450000000     0.312850000000   
C      0.043100000000     0.304300000000     0.333700000000   
C      0.296400000000     0.459950000000     0.422400000000   
C      0.249300000000     0.394350000000     0.369700000000   
H      0.211889500000     0.397503000000     0.373010500000   
C      0.044800000000     0.420450000000     0.463250000000   
C      0.065100000000     0.358950000000     0.405600000000   
H      0.104422000000     0.356580500000     0.414040500000   
C      0.270850000000     0.362650000000     0.343100000000   
C      0.031100000000     0.385800000000     0.425700000000   
C      0.028150000000     0.335600000000     0.369400000000   
C      0.295300000000     0.420600000000     0.390550000000   
Al     0.367590000000     0.033225000000     0.467505000000   
O      0.311665000000     0.075555000000     0.440730000000   
O      0.325030000000     0.015240000000     0.011780000000   
H      0.344194500000     0.013784000000     0.043995000000   
O      0.406220000000     0.055535000000     0.420605000000   
O      0.423555000000     0.492410000000     0.490630000000   
H      0.411331000000     0.464419000000     0.498521500000   
O      0.165740000000     0.238695000000     0.327775000000   
O      0.404430000000     0.173045000000     0.263640000000   
O      0.229775000000     0.049390000000     0.456050000000   
O      0.241055000000     0.211610000000     0.302450000000   
O      0.495545000000     0.194515000000     0.280985000000   
O      0.495395000000     0.030640000000     0.440215000000   
N      0.022950000000     0.128600000000     0.347300000000   
H      0.051841500000     0.142342500000     0.340763000000   
N      0.172800000000     0.119400000000     0.400000000000   
H      0.149936500000     0.103087500000     0.412299000000   
N      0.157050000000     0.154900000000     0.371550000000   
N      0.025750000000     0.097600000000     0.381300000000   
C      0.259050000000     0.076450000000     0.437150000000   
C      0.456900000000     0.054300000000     0.416300000000   
C      0.203600000000     0.209950000000     0.327600000000   
C      0.250700000000     0.144350000000     0.380300000000   
H      0.288110500000     0.147503000000     0.376989500000   
C      0.455200000000     0.170450000000     0.286750000000   
C      0.434900000000     0.108950000000     0.344400000000   
H      0.395578000000     0.106580500000     0.335959500000   
C      0.229150000000     0.112650000000     0.406900000000   
C      0.468900000000     0.135800000000     0.324300000000   
C      0.471850000000     0.085600000000     0.380600000000   
C      0.204700000000     0.170600000000     0.359450000000   
Al     0.250000000000     0.250000000000     0.750000000000   
Al     0.367590000000     0.216775000000     0.717505000000   
Al     0.000000000000     0.250000000000     0.750000000000   
O      0.311665000000     0.174445000000     0.690730000000   
O      0.325030000000     0.234760000000     0.761780000000   
H      0.344194500000     0.236216000000     0.793995000000   
O      0.406220000000     0.194465000000     0.670605000000   
O      0.423555000000     0.257590000000     0.740630000000   
H      0.411331000000     0.285581000000     0.748521500000   
O      0.165740000000     0.011305000000     0.577775000000   
O      0.404430000000     0.076955000000     0.513640000000   
O      0.229775000000     0.200610000000     0.706050000000   
O      0.241055000000     0.038390000000     0.552450000000   
O      0.495545000000     0.055485000000     0.530985000000   
O      0.495395000000     0.219360000000     0.690215000000   
N      0.022950000000     0.121400000000     0.597300000000   
H      0.051841500000     0.107657500000     0.590763000000   
N      0.172800000000     0.130600000000     0.650000000000   
H      0.149936500000     0.146912500000     0.662299000000   
N      0.157050000000     0.095100000000     0.621550000000   
N      0.025750000000     0.152400000000     0.631300000000   
C      0.259050000000     0.173550000000     0.687150000000   
C      0.456900000000     0.195700000000     0.666300000000   
C      0.203600000000     0.040050000000     0.577600000000   
C      0.250700000000     0.105650000000     0.630300000000   
H      0.288110500000     0.102497000000     0.626989500000   
C      0.455200000000     0.079550000000     0.536750000000   
C      0.434900000000     0.141050000000     0.594400000000   
H      0.395578000000     0.143419500000     0.585959500000   
C      0.229150000000     0.137350000000     0.656900000000   
C      0.468900000000     0.114200000000     0.574300000000   
C      0.471850000000     0.164400000000     0.630600000000   
C      0.204700000000     0.079400000000     0.609450000000   
Al     0.250000000000     0.000000000000     0.500000000000   
Al     0.132410000000     0.466775000000     0.532495000000   
Al     0.000000000000     0.000000000000     0.500000000000   
O      0.188335000000     0.424445000000     0.559270000000   
O      0.174970000000     0.484760000000     0.988220000000   
H      0.155805500000     0.486216000000     0.956005000000   
O      0.093780000000     0.444465000000     0.579395000000   
O      0.076445000000     0.007590000000     0.509370000000   
H      0.088669000000     0.035581000000     0.501478500000   
O      0.334260000000     0.261305000000     0.672225000000   
O      0.095570000000     0.326955000000     0.736360000000   
O      0.270225000000     0.450610000000     0.543950000000   
O      0.258945000000     0.288390000000     0.697550000000   
O      0.004455000000     0.305485000000     0.719015000000   
O      0.004605000000     0.469360000000     0.559785000000   
N      0.477050000000     0.371400000000     0.652700000000   
H      0.448158500000     0.357657500000     0.659237000000   
N      0.327200000000     0.380600000000     0.600000000000   
H      0.350063500000     0.396912500000     0.587701000000   
N      0.342950000000     0.345100000000     0.628450000000   
N      0.474250000000     0.402400000000     0.618700000000   
C      0.240950000000     0.423550000000     0.562850000000   
C      0.043100000000     0.445700000000     0.583700000000   
C      0.296400000000     0.290050000000     0.672400000000   
C      0.249300000000     0.355650000000     0.619700000000   
H      0.211889500000     0.352497000000     0.623010500000   
C      0.044800000000     0.329550000000     0.713250000000   
C      0.065100000000     0.391050000000     0.655600000000   
H      0.104422000000     0.393419500000     0.664040500000   
C      0.270850000000     0.387350000000     0.593100000000   
C      0.031100000000     0.364200000000     0.675700000000   
C      0.028150000000     0.414400000000     0.619400000000   
C      0.295300000000     0.329400000000     0.640550000000   
Al     0.132410000000     0.283225000000     0.782495000000   
O      0.188335000000     0.325555000000     0.809270000000   
O      0.174970000000     0.265240000000     0.738220000000   
H      0.155805500000     0.263784000000     0.706005000000   
O      0.093780000000     0.305535000000     0.829395000000   
O      0.076445000000     0.242410000000     0.759370000000   
H      0.088669000000     0.214419000000     0.751478500000   
O      0.334260000000     0.488695000000     0.922225000000   
O      0.095570000000     0.423045000000     0.986360000000   
O      0.270225000000     0.299390000000     0.793950000000   
O      0.258945000000     0.461610000000     0.947550000000   
O      0.004455000000     0.444515000000     0.969015000000   
O      0.004605000000     0.280640000000     0.809785000000   
N      0.477050000000     0.378600000000     0.902700000000   
H      0.448158500000     0.392342500000     0.909237000000   
N      0.327200000000     0.369400000000     0.850000000000   
H      0.350063500000     0.353087500000     0.837701000000   
N      0.342950000000     0.404900000000     0.878450000000   
N      0.474250000000     0.347600000000     0.868700000000   
C      0.240950000000     0.326450000000     0.812850000000   
C      0.043100000000     0.304300000000     0.833700000000   
C      0.296400000000     0.459950000000     0.922400000000   
C      0.249300000000     0.394350000000     0.869700000000   
H      0.211889500000     0.397503000000     0.873010500000   
C      0.044800000000     0.420450000000     0.963250000000   
C      0.065100000000     0.358950000000     0.905600000000   
H      0.104422000000     0.356580500000     0.914040500000   
C      0.270850000000     0.362650000000     0.843100000000   
C      0.031100000000     0.385800000000     0.925700000000   
C      0.028150000000     0.335600000000     0.869400000000   
C      0.295300000000     0.420600000000     0.890550000000   
Al     0.367590000000     0.033225000000     0.967505000000   
O      0.311665000000     0.075555000000     0.940730000000   
O      0.325030000000     0.015240000000     0.511780000000   
H      0.344194500000     0.013784000000     0.543995000000   
O      0.406220000000     0.055535000000     0.920605000000   
O      0.423555000000     0.492410000000     0.990630000000   
H      0.411331000000     0.464419000000     0.998521500000   
O      0.165740000000     0.238695000000     0.827775000000   
O      0.404430000000     0.173045000000     0.763640000000   
O      0.229775000000     0.049390000000     0.956050000000   
O      0.241055000000     0.211610000000     0.802450000000   
O      0.495545000000     0.194515000000     0.780985000000   
O      0.495395000000     0.030640000000     0.940215000000   
N      0.022950000000     0.128600000000     0.847300000000   
H      0.051841500000     0.142342500000     0.840763000000   
N      0.172800000000     0.119400000000     0.900000000000   
H      0.149936500000     0.103087500000     0.912299000000   
N      0.157050000000     0.154900000000     0.871550000000   
N      0.025750000000     0.097600000000     0.881300000000   
C      0.259050000000     0.076450000000     0.937150000000   
C      0.456900000000     0.054300000000     0.916300000000   
C      0.203600000000     0.209950000000     0.827600000000   
C      0.250700000000     0.144350000000     0.880300000000   
H      0.288110500000     0.147503000000     0.876989500000   
C      0.455200000000     0.170450000000     0.786750000000   
C      0.434900000000     0.108950000000     0.844400000000   
H      0.395578000000     0.106580500000     0.835959500000   
C      0.229150000000     0.112650000000     0.906900000000   
C      0.468900000000     0.135800000000     0.824300000000   
C      0.471850000000     0.085600000000     0.880600000000   
C      0.204700000000     0.170600000000     0.859450000000   
Al     0.250000000000     0.750000000000     0.250000000000   
Al     0.367590000000     0.716775000000     0.217505000000   
Al     0.000000000000     0.750000000000     0.250000000000   
O      0.311665000000     0.674445000000     0.190730000000   
O      0.325030000000     0.734760000000     0.261780000000   
H      0.344194500000     0.736216000000     0.293995000000   
O      0.406220000000     0.694465000000     0.170605000000   
O      0.423555000000     0.757590000000     0.240630000000   
H      0.411331000000     0.785581000000     0.248521500000   
O      0.165740000000     0.511305000000     0.077775000000   
O      0.404430000000     0.576955000000     0.013640000000   
O      0.229775000000     0.700610000000     0.206050000000   
O      0.241055000000     0.538390000000     0.052450000000   
O      0.495545000000     0.555485000000     0.030985000000   
O      0.495395000000     0.719360000000     0.190215000000   
N      0.022950000000     0.621400000000     0.097300000000   
H      0.051841500000     0.607657500000     0.090763000000   
N      0.172800000000     0.630600000000     0.150000000000   
H      0.149936500000     0.646912500000     0.162299000000   
N      0.157050000000     0.595100000000     0.121550000000   
N      0.025750000000     0.652400000000     0.131300000000   
C      0.259050000000     0.673550000000     0.187150000000   
C      0.456900000000     0.695700000000     0.166300000000   
C      0.203600000000     0.540050000000     0.077600000000   
C      0.250700000000     0.605650000000     0.130300000000   
H      0.288110500000     0.602497000000     0.126989500000   
C      0.455200000000     0.579550000000     0.036750000000   
C      0.434900000000     0.641050000000     0.094400000000   
H      0.395578000000     0.643419500000     0.085959500000   
C      0.229150000000     0.637350000000     0.156900000000   
C      0.468900000000     0.614200000000     0.074300000000   
C      0.471850000000     0.664400000000     0.130600000000   
C      0.204700000000     0.579400000000     0.109450000000   
Al     0.250000000000     0.500000000000     0.000000000000   
Al     0.132410000000     0.966775000000     0.032495000000   
Al     0.000000000000     0.500000000000     0.000000000000   
O      0.188335000000     0.924445000000     0.059270000000   
O      0.174970000000     0.984760000000     0.488220000000   
H      0.155805500000     0.986216000000     0.456005000000   
O      0.093780000000     0.944465000000     0.079395000000   
O      0.076445000000     0.507590000000     0.009370000000   
H      0.088669000000     0.535581000000     0.001478500000   
O      0.334260000000     0.761305000000     0.172225000000   
O      0.095570000000     0.826955000000     0.236360000000   
O      0.270225000000     0.950610000000     0.043950000000   
O      0.258945000000     0.788390000000     0.197550000000   
O      0.004455000000     0.805485000000     0.219015000000   
O      0.004605000000     0.969360000000     0.059785000000   
N      0.477050000000     0.871400000000     0.152700000000   
H      0.448158500000     0.857657500000     0.159237000000   
N      0.327200000000     0.880600000000     0.100000000000   
H      0.350063500000     0.896912500000     0.087701000000   
N      0.342950000000     0.845100000000     0.128450000000   
N      0.474250000000     0.902400000000     0.118700000000   
C      0.240950000000     0.923550000000     0.062850000000   
C      0.043100000000     0.945700000000     0.083700000000   
C      0.296400000000     0.790050000000     0.172400000000   
C      0.249300000000     0.855650000000     0.119700000000   
H      0.211889500000     0.852497000000     0.123010500000   
C      0.044800000000     0.829550000000     0.213250000000   
C      0.065100000000     0.891050000000     0.155600000000   
H      0.104422000000     0.893419500000     0.164040500000   
C      0.270850000000     0.887350000000     0.093100000000   
C      0.031100000000     0.864200000000     0.175700000000   
C      0.028150000000     0.914400000000     0.119400000000   
C      0.295300000000     0.829400000000     0.140550000000   
Al     0.132410000000     0.783225000000     0.282495000000   
O      0.188335000000     0.825555000000     0.309270000000   
O      0.174970000000     0.765240000000     0.238220000000   
H      0.155805500000     0.763784000000     0.206005000000   
O      0.093780000000     0.805535000000     0.329395000000   
O      0.076445000000     0.742410000000     0.259370000000   
H      0.088669000000     0.714419000000     0.251478500000   
O      0.334260000000     0.988695000000     0.422225000000   
O      0.095570000000     0.923045000000     0.486360000000   
O      0.270225000000     0.799390000000     0.293950000000   
O      0.258945000000     0.961610000000     0.447550000000   
O      0.004455000000     0.944515000000     0.469015000000   
O      0.004605000000     0.780640000000     0.309785000000   
N      0.477050000000     0.878600000000     0.402700000000   
H      0.448158500000     0.892342500000     0.409237000000   
N      0.327200000000     0.869400000000     0.350000000000   
H      0.350063500000     0.853087500000     0.337701000000   
N      0.342950000000     0.904900000000     0.378450000000   
N      0.474250000000     0.847600000000     0.368700000000   
C      0.240950000000     0.826450000000     0.312850000000   
C      0.043100000000     0.804300000000     0.333700000000   
C      0.296400000000     0.959950000000     0.422400000000   
C      0.249300000000     0.894350000000     0.369700000000   
H      0.211889500000     0.897503000000     0.373010500000   
C      0.044800000000     0.920450000000     0.463250000000   
C      0.065100000000     0.858950000000     0.405600000000   
H      0.104422000000     0.856580500000     0.414040500000   
C      0.270850000000     0.862650000000     0.343100000000   
C      0.031100000000     0.885800000000     0.425700000000   
C      0.028150000000     0.835600000000     0.369400000000   
C      0.295300000000     0.920600000000     0.390550000000   
Al     0.367590000000     0.533225000000     0.467505000000   
O      0.311665000000     0.575555000000     0.440730000000   
O      0.325030000000     0.515240000000     0.011780000000   
H      0.344194500000     0.513784000000     0.043995000000   
O      0.406220000000     0.555535000000     0.420605000000   
O      0.423555000000     0.992410000000     0.490630000000   
H      0.411331000000     0.964419000000     0.498521500000   
O      0.165740000000     0.738695000000     0.327775000000   
O      0.404430000000     0.673045000000     0.263640000000   
O      0.229775000000     0.549390000000     0.456050000000   
O      0.241055000000     0.711610000000     0.302450000000   
O      0.495545000000     0.694515000000     0.280985000000   
O      0.495395000000     0.530640000000     0.440215000000   
N      0.022950000000     0.628600000000     0.347300000000   
H      0.051841500000     0.642342500000     0.340763000000   
N      0.172800000000     0.619400000000     0.400000000000   
H      0.149936500000     0.603087500000     0.412299000000   
N      0.157050000000     0.654900000000     0.371550000000   
N      0.025750000000     0.597600000000     0.381300000000   
C      0.259050000000     0.576450000000     0.437150000000   
C      0.456900000000     0.554300000000     0.416300000000   
C      0.203600000000     0.709950000000     0.327600000000   
C      0.250700000000     0.644350000000     0.380300000000   
H      0.288110500000     0.647503000000     0.376989500000   
C      0.455200000000     0.670450000000     0.286750000000   
C      0.434900000000     0.608950000000     0.344400000000   
H      0.395578000000     0.606580500000     0.335959500000   
C      0.229150000000     0.612650000000     0.406900000000   
C      0.468900000000     0.635800000000     0.324300000000   
C      0.471850000000     0.585600000000     0.380600000000   
C      0.204700000000     0.670600000000     0.359450000000   
Al     0.250000000000     0.750000000000     0.750000000000   
Al     0.367590000000     0.716775000000     0.717505000000   
Al     0.000000000000     0.750000000000     0.750000000000   
O      0.311665000000     0.674445000000     0.690730000000   
O      0.325030000000     0.734760000000     0.761780000000   
H      0.344194500000     0.736216000000     0.793995000000   
O      0.406220000000     0.694465000000     0.670605000000   
O      0.423555000000     0.757590000000     0.740630000000   
H      0.411331000000     0.785581000000     0.748521500000   
O      0.165740000000     0.511305000000     0.577775000000   
O      0.404430000000     0.576955000000     0.513640000000   
O      0.229775000000     0.700610000000     0.706050000000   
O      0.241055000000     0.538390000000     0.552450000000   
O      0.495545000000     0.555485000000     0.530985000000   
O      0.495395000000     0.719360000000     0.690215000000   
N      0.022950000000     0.621400000000     0.597300000000   
H      0.051841500000     0.607657500000     0.590763000000   
N      0.172800000000     0.630600000000     0.650000000000   
H      0.149936500000     0.646912500000     0.662299000000   
N      0.157050000000     0.595100000000     0.621550000000   
N      0.025750000000     0.652400000000     0.631300000000   
C      0.259050000000     0.673550000000     0.687150000000   
C      0.456900000000     0.695700000000     0.666300000000   
C      0.203600000000     0.540050000000     0.577600000000   
C      0.250700000000     0.605650000000     0.630300000000   
H      0.288110500000     0.602497000000     0.626989500000   
C      0.455200000000     0.579550000000     0.536750000000   
C      0.434900000000     0.641050000000     0.594400000000   
H      0.395578000000     0.643419500000     0.585959500000   
C      0.229150000000     0.637350000000     0.656900000000   
C      0.468900000000     0.614200000000     0.574300000000   
C      0.471850000000     0.664400000000     0.630600000000   
C      0.204700000000     0.579400000000     0.609450000000   
Al     0.250000000000     0.500000000000     0.500000000000   
Al     0.132410000000     0.966775000000     0.532495000000   
Al     0.000000000000     0.500000000000     0.500000000000   
O      0.188335000000     0.924445000000     0.559270000000   
O      0.174970000000     0.984760000000     0.988220000000   
H      0.155805500000     0.986216000000     0.956005000000   
O      0.093780000000     0.944465000000     0.579395000000   
O      0.076445000000     0.507590000000     0.509370000000   
H      0.088669000000     0.535581000000     0.501478500000   
O      0.334260000000     0.761305000000     0.672225000000   
O      0.095570000000     0.826955000000     0.736360000000   
O      0.270225000000     0.950610000000     0.543950000000   
O      0.258945000000     0.788390000000     0.697550000000   
O      0.004455000000     0.805485000000     0.719015000000   
O      0.004605000000     0.969360000000     0.559785000000   
N      0.477050000000     0.871400000000     0.652700000000   
H      0.448158500000     0.857657500000     0.659237000000   
N      0.327200000000     0.880600000000     0.600000000000   
H      0.350063500000     0.896912500000     0.587701000000   
N      0.342950000000     0.845100000000     0.628450000000   
N      0.474250000000     0.902400000000     0.618700000000   
C      0.240950000000     0.923550000000     0.562850000000   
C      0.043100000000     0.945700000000     0.583700000000   
C      0.296400000000     0.790050000000     0.672400000000   
C      0.249300000000     0.855650000000     0.619700000000   
H      0.211889500000     0.852497000000     0.623010500000   
C      0.044800000000     0.829550000000     0.713250000000   
C      0.065100000000     0.891050000000     0.655600000000   
H      0.104422000000     0.893419500000     0.664040500000   
C      0.270850000000     0.887350000000     0.593100000000   
C      0.031100000000     0.864200000000     0.675700000000   
C      0.028150000000     0.914400000000     0.619400000000   
C      0.295300000000     0.829400000000     0.640550000000   
Al     0.132410000000     0.783225000000     0.782495000000   
O      0.188335000000     0.825555000000     0.809270000000   
O      0.174970000000     0.765240000000     0.738220000000   
H      0.155805500000     0.763784000000     0.706005000000   
O      0.093780000000     0.805535000000     0.829395000000   
O      0.076445000000     0.742410000000     0.759370000000   
H      0.088669000000     0.714419000000     0.751478500000   
O      0.334260000000     0.988695000000     0.922225000000   
O      0.095570000000     0.923045000000     0.986360000000   
O      0.270225000000     0.799390000000     0.793950000000   
O      0.258945000000     0.961610000000     0.947550000000   
O      0.004455000000     0.944515000000     0.969015000000   
O      0.004605000000     0.780640000000     0.809785000000   
N      0.477050000000     0.878600000000     0.902700000000   
H      0.448158500000     0.892342500000     0.909237000000   
N      0.327200000000     0.869400000000     0.850000000000   
H      0.350063500000     0.853087500000     0.837701000000   
N      0.342950000000     0.904900000000     0.878450000000   
N      0.474250000000     0.847600000000     0.868700000000   
C      0.240950000000     0.826450000000     0.812850000000   
C      0.043100000000     0.804300000000     0.833700000000   
C      0.296400000000     0.959950000000     0.922400000000   