%BLOCK LATTICE_CART
ang    # angstrom units
  21.294100000000    0.000000000000     0.000000000000   
  0.000000000000     21.294100000000    0.000000000000   
  0.000000000000     0.000000000000     10.692800000000  
%ENDBLOCK LATTICE_CART

%BLOCK POSITIONS_FRAC
Al     0.406870000000     0.377040000000     0.223266666667   
O      0.379705000000     0.375350000000     0.178766666667   
O      0.415600000000     0.333250000000     0.218600000000   
O      0.401850000000     0.420850000000     0.231133333333   
O      0.440700000000     0.385850000000     0.183633333333   
O      0.439200000000     0.380300000000     0.264600000000   
C      0.442500000000     0.366400000000     0.298166666667   
C      0.441000000000     0.404100000000     0.153900000000   
C      0.471450000000     0.416050000000     0.137300000000   
C      0.000000000000     0.372300000000     0.301500000000   
C      0.000000000000     0.361450000000     0.054366666667   
H      0.000000000000     0.360297500000     0.083932333333   
C      0.000000000000     0.404450000000     0.155300000000   
C      0.471850000000     0.367700000000     0.322000000000   
C      0.472350000000     0.440100000000     0.108966666667   
H      0.450000000000     0.448500000000     0.098333333333   
C      0.472850000000     0.362350000000     0.032066666667   
H      0.453595000000     0.359233000000     0.046433000000   
C      0.000000000000     0.451050000000     0.095500000000   
H      0.000000000000     0.468000000000     0.073666666667   
H      0.000000000000     0.376000000000     0.273000000000   
Al     0.122960000000     0.156870000000     0.306600000000   
O      0.124650000000     0.129705000000     0.262100000000   
O      0.166750000000     0.165600000000     0.301933333333   
O      0.079150000000     0.151850000000     0.314466666667   
O      0.114150000000     0.190700000000     0.266966666667   
O      0.119700000000     0.189200000000     0.014600000000   
C      0.133600000000     0.192500000000     0.048166666667   
C      0.095900000000     0.191000000000     0.237233333333   
C      0.083950000000     0.221450000000     0.220633333333   
C      0.127700000000     0.250000000000     0.051500000000   
C      0.138550000000     0.250000000000     0.137700000000   
H      0.139702500000     0.250000000000     0.167265666667   
C      0.095550000000     0.250000000000     0.238633333333   
C      0.132300000000     0.221850000000     0.072000000000   
C      0.059900000000     0.222350000000     0.192300000000   
H      0.051500000000     0.200000000000     0.181666666667   
C      0.137650000000     0.222850000000     0.115400000000   
H      0.140767000000     0.203595000000     0.129766333333   
C      0.048950000000     0.250000000000     0.178833333333   
H      0.032000000000     0.250000000000     0.157000000000   
H      0.124000000000     0.250000000000     0.023000000000   
Al     0.343130000000     0.372960000000     0.056600000000   
O      0.370295000000     0.374650000000     0.012100000000   
O      0.334400000000     0.416750000000     0.051933333333   
O      0.348150000000     0.329150000000     0.064466666667   
O      0.309300000000     0.364150000000     0.016966666667   
O      0.310800000000     0.369700000000     0.097933333333   
C      0.307500000000     0.383600000000     0.131500000000   
C      0.309000000000     0.345900000000     0.320566666667   
C      0.278550000000     0.333950000000     0.303966666667   
C      0.250000000000     0.377700000000     0.134833333333   
C      0.250000000000     0.388550000000     0.221033333333   
H      0.250000000000     0.389702500000     0.250599000000   
C      0.250000000000     0.345550000000     0.321966666667   
C      0.278150000000     0.382300000000     0.155333333333   
C      0.277650000000     0.309900000000     0.275633333333   
H      0.300000000000     0.301500000000     0.265000000000   
C      0.277150000000     0.387650000000     0.198733333333   
H      0.296405000000     0.390767000000     0.213099666667   
C      0.250000000000     0.298950000000     0.262166666667   
H      0.250000000000     0.282000000000     0.240333333333   
H      0.250000000000     0.374000000000     0.106333333333   
Al     0.127040000000     0.093130000000     0.139933333333   
O      0.125350000000     0.120295000000     0.095433333333   
O      0.083250000000     0.084400000000     0.135266666667   
O      0.170850000000     0.098150000000     0.147800000000   
O      0.135850000000     0.059300000000     0.100300000000   
O      0.130300000000     0.060800000000     0.181266666667   
C      0.116400000000     0.057500000000     0.214833333333   
C      0.154100000000     0.059000000000     0.070566666667   
C      0.166050000000     0.028550000000     0.053966666667   
C      0.122300000000     0.000000000000     0.218166666667   
C      0.111450000000     0.000000000000     0.304366666667   
H      0.110297500000     0.000000000000     0.000599000000   
C      0.154450000000     0.000000000000     0.071966666667   
C      0.117700000000     0.028150000000     0.238666666667   
C      0.190100000000     0.027650000000     0.025633333333   
H      0.198500000000     0.050000000000     0.015000000000   
C      0.112350000000     0.027150000000     0.282066666667   
H      0.109233000000     0.046405000000     0.296433000000   
C      0.201050000000     0.000000000000     0.012166666667   
H      0.218000000000     0.000000000000     0.323666666667   
H      0.126000000000     0.000000000000     0.189666666667   
Al     0.093130000000     0.377040000000     0.223266666667   
O      0.120295000000     0.375350000000     0.178766666667   
O      0.084400000000     0.333250000000     0.218600000000   
O      0.098150000000     0.420850000000     0.231133333333   
O      0.059300000000     0.385850000000     0.183633333333   
O      0.060800000000     0.380300000000     0.264600000000   
C      0.057500000000     0.366400000000     0.298166666667   
C      0.059000000000     0.404100000000     0.153900000000   
C      0.028550000000     0.416050000000     0.137300000000   
C      0.028150000000     0.367700000000     0.322000000000   
C      0.027650000000     0.440100000000     0.108966666667   
H      0.050000000000     0.448500000000     0.098333333333   
C      0.027150000000     0.362350000000     0.032066666667   
H      0.046405000000     0.359233000000     0.046433000000   
Al     0.122960000000     0.343130000000     0.306600000000   
O      0.124650000000     0.370295000000     0.262100000000   
O      0.166750000000     0.334400000000     0.301933333333   
O      0.079150000000     0.348150000000     0.314466666667   
O      0.114150000000     0.309300000000     0.266966666667   
O      0.119700000000     0.310800000000     0.014600000000   
C      0.133600000000     0.307500000000     0.048166666667   
C      0.095900000000     0.309000000000     0.237233333333   
C      0.083950000000     0.278550000000     0.220633333333   
C      0.132300000000     0.278150000000     0.072000000000   
C      0.059900000000     0.277650000000     0.192300000000   
H      0.051500000000     0.300000000000     0.181666666667   
C      0.137650000000     0.277150000000     0.115400000000   
H      0.140767000000     0.296405000000     0.129766333333   
Al     0.156870000000     0.372960000000     0.056600000000   
O      0.129705000000     0.374650000000     0.012100000000   
O      0.165600000000     0.416750000000     0.051933333333   
O      0.151850000000     0.329150000000     0.064466666667   
O      0.190700000000     0.364150000000     0.016966666667   
O      0.189200000000     0.369700000000     0.097933333333   
C      0.192500000000     0.383600000000     0.131500000000   
C      0.191000000000     0.345900000000     0.320566666667   
C      0.221450000000     0.333950000000     0.303966666667   
C      0.221850000000     0.382300000000     0.155333333333   
C      0.222350000000     0.309900000000     0.275633333333   
H      0.200000000000     0.301500000000     0.265000000000   
C      0.222850000000     0.387650000000     0.198733333333   
H      0.203595000000     0.390767000000     0.213099666667   
Al     0.127040000000     0.406870000000     0.139933333333   
O      0.125350000000     0.379705000000     0.095433333333   
O      0.083250000000     0.415600000000     0.135266666667   
O      0.170850000000     0.401850000000     0.147800000000   
O      0.135850000000     0.440700000000     0.100300000000   
O      0.130300000000     0.439200000000     0.181266666667   
C      0.116400000000     0.442500000000     0.214833333333   
C      0.154100000000     0.441000000000     0.070566666667   
C      0.166050000000     0.471450000000     0.053966666667   
C      0.117700000000     0.471850000000     0.238666666667   
C      0.190100000000     0.472350000000     0.025633333333   
H      0.198500000000     0.450000000000     0.015000000000   
C      0.112350000000     0.472850000000     0.282066666667   
H      0.109233000000     0.453595000000     0.296433000000   
Al     0.156870000000     0.127040000000     0.056600000000   
O      0.129705000000     0.125350000000     0.012100000000   
O      0.165600000000     0.083250000000     0.051933333333   
O      0.151850000000     0.170850000000     0.064466666667   
O      0.190700000000     0.135850000000     0.016966666667   
O      0.189200000000     0.130300000000     0.097933333333   
C      0.192500000000     0.116400000000     0.131500000000   
C      0.191000000000     0.154100000000     0.320566666667   
C      0.221450000000     0.166050000000     0.303966666667   
C      0.250000000000     0.122300000000     0.134833333333   
C      0.250000000000     0.111450000000     0.221033333333   
H      0.250000000000     0.110297500000     0.250599000000   
C      0.250000000000     0.154450000000     0.321966666667   
C      0.221850000000     0.117700000000     0.155333333333   
C      0.222350000000     0.190100000000     0.275633333333   
H      0.200000000000     0.198500000000     0.265000000000   
C      0.222850000000     0.112350000000     0.198733333333   
H      0.203595000000     0.109233000000     0.213099666667   
C      0.250000000000     0.201050000000     0.262166666667   
H      0.250000000000     0.218000000000     0.240333333333   
H      0.250000000000     0.126000000000     0.106333333333   
Al     0.372960000000     0.406870000000     0.139933333333   
O      0.374650000000     0.379705000000     0.095433333333   
O      0.416750000000     0.415600000000     0.135266666667   
O      0.329150000000     0.401850000000     0.147800000000   
O      0.364150000000     0.440700000000     0.100300000000   
O      0.369700000000     0.439200000000     0.181266666667   
C      0.383600000000     0.442500000000     0.214833333333   
C      0.345900000000     0.441000000000     0.070566666667   
C      0.333950000000     0.471450000000     0.053966666667   
C      0.377700000000     0.000000000000     0.218166666667   
C      0.388550000000     0.000000000000     0.304366666667   
H      0.389702500000     0.000000000000     0.000599000000   
C      0.345550000000     0.000000000000     0.071966666667   
C      0.382300000000     0.471850000000     0.238666666667   
C      0.309900000000     0.472350000000     0.025633333333   
H      0.301500000000     0.450000000000     0.015000000000   
C      0.387650000000     0.472850000000     0.282066666667   
H      0.390767000000     0.453595000000     0.296433000000   
C      0.298950000000     0.000000000000     0.012166666667   
H      0.282000000000     0.000000000000     0.323666666667   
H      0.374000000000     0.000000000000     0.189666666667   
Al     0.093130000000     0.122960000000     0.223266666667   
O      0.120295000000     0.124650000000     0.178766666667   
O      0.084400000000     0.166750000000     0.218600000000   
O      0.098150000000     0.079150000000     0.231133333333   
O      0.059300000000     0.114150000000     0.183633333333   
O      0.060800000000     0.119700000000     0.264600000000   
C      0.057500000000     0.133600000000     0.298166666667   
C      0.059000000000     0.095900000000     0.153900000000   
C      0.028550000000     0.083950000000     0.137300000000   
C      0.000000000000     0.127700000000     0.301500000000   
C      0.000000000000     0.138550000000     0.054366666667   
H      0.000000000000     0.139702500000     0.083932333333   
C      0.000000000000     0.095550000000     0.155300000000   
C      0.028150000000     0.132300000000     0.322000000000   
C      0.027650000000     0.059900000000     0.108966666667   
H      0.050000000000     0.051500000000     0.098333333333   
C      0.027150000000     0.137650000000     0.032066666667   
H      0.046405000000     0.140767000000     0.046433000000   
C      0.000000000000     0.048950000000     0.095500000000   
H      0.000000000000     0.032000000000     0.073666666667   
H      0.000000000000     0.124000000000     0.273000000000   
Al     0.377040000000     0.343130000000     0.306600000000   
O      0.375350000000     0.370295000000     0.262100000000   
O      0.333250000000     0.334400000000     0.301933333333   
O      0.420850000000     0.348150000000     0.314466666667   
O      0.385850000000     0.309300000000     0.266966666667   
O      0.380300000000     0.310800000000     0.014600000000   
C      0.366400000000     0.307500000000     0.048166666667   
C      0.404100000000     0.309000000000     0.237233333333   
C      0.416050000000     0.278550000000     0.220633333333   
C      0.372300000000     0.250000000000     0.051500000000   
C      0.361450000000     0.250000000000     0.137700000000   
H      0.360297500000     0.250000000000     0.167265666667   
C      0.404450000000     0.250000000000     0.238633333333   
C      0.367700000000     0.278150000000     0.072000000000   
C      0.440100000000     0.277650000000     0.192300000000   
H      0.448500000000     0.300000000000     0.181666666667   
C      0.362350000000     0.277150000000     0.115400000000   
H      0.359233000000     0.296405000000     0.129766333333   
C      0.451050000000     0.250000000000     0.178833333333   
H      0.468000000000     0.250000000000     0.157000000000   
H      0.376000000000     0.250000000000     0.023000000000   
Al     0.343130000000     0.127040000000     0.056600000000   
O      0.370295000000     0.125350000000     0.012100000000   
O      0.334400000000     0.083250000000     0.051933333333   
O      0.348150000000     0.170850000000     0.064466666667   
O      0.309300000000     0.135850000000     0.016966666667   
O      0.310800000000     0.130300000000     0.097933333333   
C      0.307500000000     0.116400000000     0.131500000000   
C      0.309000000000     0.154100000000     0.320566666667   
C      0.278550000000     0.166050000000     0.303966666667   
C      0.278150000000     0.117700000000     0.155333333333   
C      0.277650000000     0.190100000000     0.275633333333   
H      0.300000000000     0.198500000000     0.265000000000   
C      0.277150000000     0.112350000000     0.198733333333   
H      0.296405000000     0.109233000000     0.213099666667   
Al     0.372960000000     0.093130000000     0.139933333333   
O      0.374650000000     0.120295000000     0.095433333333   
O      0.416750000000     0.084400000000     0.135266666667   
O      0.329150000000     0.098150000000     0.147800000000   
O      0.364150000000     0.059300000000     0.100300000000   
O      0.369700000000     0.060800000000     0.181266666667   
C      0.383600000000     0.057500000000     0.214833333333   
C      0.345900000000     0.059000000000     0.070566666667   
C      0.333950000000     0.028550000000     0.053966666667   
C      0.382300000000     0.028150000000     0.238666666667   
C      0.309900000000     0.027650000000     0.025633333333   
H      0.301500000000     0.050000000000     0.015000000000   
C      0.387650000000     0.027150000000     0.282066666667   
H      0.390767000000     0.046405000000     0.296433000000   
Al     0.406870000000     0.122960000000     0.223266666667   
O      0.379705000000     0.124650000000     0.178766666667   
O      0.415600000000     0.166750000000     0.218600000000   
O      0.401850000000     0.079150000000     0.231133333333   
O      0.440700000000     0.114150000000     0.183633333333   
O      0.439200000000     0.119700000000     0.264600000000   
C      0.442500000000     0.133600000000     0.298166666667   
C      0.441000000000     0.095900000000     0.153900000000   
C      0.471450000000     0.083950000000     0.137300000000   
C      0.471850000000     0.132300000000     0.322000000000   
C      0.472350000000     0.059900000000     0.108966666667   
H      0.450000000000     0.051500000000     0.098333333333   
C      0.472850000000     0.137650000000     0.032066666667   
H      0.453595000000     0.140767000000     0.046433000000   
Al     0.377040000000     0.156870000000     0.306600000000   
O      0.375350000000     0.129705000000     0.262100000000   
O      0.333250000000     0.165600000000     0.301933333333   
O      0.420850000000     0.151850000000     0.314466666667   
O      0.385850000000     0.190700000000     0.266966666667   
O      0.380300000000     0.189200000000     0.014600000000   
C      0.366400000000     0.192500000000     0.048166666667   
C      0.404100000000     0.191000000000     0.237233333333   
C      0.416050000000     0.221450000000     0.220633333333   
C      0.367700000000     0.221850000000     0.072000000000   
C      0.440100000000     0.222350000000     0.192300000000   
H      0.448500000000     0.200000000000     0.181666666667   
C      0.362350000000     0.222850000000     0.115400000000   
H      0.359233000000     0.203595000000     0.129766333333   
Al     0.406870000000     0.377040000000     0.556600000000   
O      0.379705000000     0.375350000000     0.512100000000   
O      0.415600000000     0.333250000000     0.551933333333   
O      0.401850000000     0.420850000000     0.564466666667   
O      0.440700000000     0.385850000000     0.516966666667   
O      0.439200000000     0.380300000000     0.597933333333   
C      0.442500000000     0.366400000000     0.631500000000   
C      0.441000000000     0.404100000000     0.487233333333   
C      0.471450000000     0.416050000000     0.470633333333   
C      0.000000000000     0.372300000000     0.634833333333   
C      0.000000000000     0.361450000000     0.387700000000   
H      0.000000000000     0.360297500000     0.417265666667   
C      0.000000000000     0.404450000000     0.488633333333   
C      0.471850000000     0.367700000000     0.655333333333   
C      0.472350000000     0.440100000000     0.442300000000   
H      0.450000000000     0.448500000000     0.431666666667   
C      0.472850000000     0.362350000000     0.365400000000   
H      0.453595000000     0.359233000000     0.379766333333   
C      0.000000000000     0.451050000000     0.428833333333   
H      0.000000000000     0.468000000000     0.407000000000   
H      0.000000000000     0.376000000000     0.606333333333   
Al     0.122960000000     0.156870000000     0.639933333333   
O      0.124650000000     0.129705000000     0.595433333333   
O      0.166750000000     0.165600000000     0.635266666667   
O      0.079150000000     0.151850000000     0.647800000000   
O      0.114150000000     0.190700000000     0.600300000000   
O      0.119700000000     0.189200000000     0.347933333333   
C      0.133600000000     0.192500000000     0.381500000000   
C      0.095900000000     0.191000000000     0.570566666667   
C      0.083950000000     0.221450000000     0.553966666667   
C      0.127700000000     0.250000000000     0.384833333333   
C      0.138550000000     0.250000000000     0.471033333333   
H      0.139702500000     0.250000000000     0.500599000000   
C      0.095550000000     0.250000000000     0.571966666667   
C      0.132300000000     0.221850000000     0.405333333333   
C      0.059900000000     0.222350000000     0.525633333333   
H      0.051500000000     0.200000000000     0.515000000000   
C      0.137650000000     0.222850000000     0.448733333333   
H      0.140767000000     0.203595000000     0.463099666667   
C      0.048950000000     0.250000000000     0.512166666667   
H      0.032000000000     0.250000000000     0.490333333333   
H      0.124000000000     0.250000000000     0.356333333333   
Al     0.343130000000     0.372960000000     0.389933333333   
O      0.370295000000     0.374650000000     0.345433333333   
O      0.334400000000     0.416750000000     0.385266666667   
O      0.348150000000     0.329150000000     0.397800000000   
O      0.309300000000     0.364150000000     0.350300000000   
O      0.310800000000     0.369700000000     0.431266666667   
C      0.307500000000     0.383600000000     0.464833333333   
C      0.309000000000     0.345900000000     0.653900000000   
C      0.278550000000     0.333950000000     0.637300000000   
C      0.250000000000     0.377700000000     0.468166666667   
C      0.250000000000     0.388550000000     0.554366666667   
H      0.250000000000     0.389702500000     0.583932333333   
C      0.250000000000     0.345550000000     0.655300000000   
C      0.278150000000     0.382300000000     0.488666666667   
C      0.277650000000     0.309900000000     0.608966666667   
H      0.300000000000     0.301500000000     0.598333333333   
C      0.277150000000     0.387650000000     0.532066666667   
H      0.296405000000     0.390767000000     0.546433000000   
C      0.250000000000     0.298950000000     0.595500000000   
H      0.250000000000     0.282000000000     0.573666666667   
H      0.250000000000     0.374000000000     0.439666666667   
Al     0.127040000000     0.093130000000     0.473266666667   
O      0.125350000000     0.120295000000     0.428766666667   
O      0.083250000000     0.084400000000     0.468600000000   
O      0.170850000000     0.098150000000     0.481133333333   
O      0.135850000000     0.059300000000     0.433633333333   
O      0.130300000000     0.060800000000     0.514600000000   
C      0.116400000000     0.057500000000     0.548166666667   
C      0.154100000000     0.059000000000     0.403900000000   
C      0.166050000000     0.028550000000     0.387300000000   
C      0.122300000000     0.000000000000     0.551500000000   
C      0.111450000000     0.000000000000     0.637700000000   
H      0.110297500000     0.000000000000     0.333932333333   
C      0.154450000000     0.000000000000     0.405300000000   
C      0.117700000000     0.028150000000     0.572000000000   
C      0.190100000000     0.027650000000     0.358966666667   
H      0.198500000000     0.050000000000     0.348333333333   
C      0.112350000000     0.027150000000     0.615400000000   
H      0.109233000000     0.046405000000     0.629766333333   
C      0.201050000000     0.000000000000     0.345500000000   
H      0.218000000000     0.000000000000     0.657000000000   
H      0.126000000000     0.000000000000     0.523000000000   
Al     0.093130000000     0.377040000000     0.556600000000   
O      0.120295000000     0.375350000000     0.512100000000   
O      0.084400000000     0.333250000000     0.551933333333   
O      0.098150000000     0.420850000000     0.564466666667   
O      0.059300000000     0.385850000000     0.516966666667   
O      0.060800000000     0.380300000000     0.597933333333   
C      0.057500000000     0.366400000000     0.631500000000   
C      0.059000000000     0.404100000000     0.487233333333   
C      0.028550000000     0.416050000000     0.470633333333   
C      0.028150000000     0.367700000000     0.655333333333   
C      0.027650000000     0.440100000000     0.442300000000   
H      0.050000000000     0.448500000000     0.431666666667   
C      0.027150000000     0.362350000000     0.365400000000   
H      0.046405000000     0.359233000000     0.379766333333   
Al     0.122960000000     0.343130000000     0.639933333333   
O      0.124650000000     0.370295000000     0.595433333333   
O      0.166750000000     0.334400000000     0.635266666667   
O      0.079150000000     0.348150000000     0.647800000000   
O      0.114150000000     0.309300000000     0.600300000000   
O      0.119700000000     0.310800000000     0.347933333333   
C      0.133600000000     0.307500000000     0.381500000000   
C      0.095900000000     0.309000000000     0.570566666667   
C      0.083950000000     0.278550000000     0.553966666667   
C      0.132300000000     0.278150000000     0.405333333333   
C      0.059900000000     0.277650000000     0.525633333333   
H      0.051500000000     0.300000000000     0.515000000000   
C      0.137650000000     0.277150000000     0.448733333333   
H      0.140767000000     0.296405000000     0.463099666667   
Al     0.156870000000     0.372960000000     0.389933333333   
O      0.129705000000     0.374650000000     0.345433333333   
O      0.165600000000     0.416750000000     0.385266666667   
O      0.151850000000     0.329150000000     0.397800000000   
O      0.190700000000     0.364150000000     0.350300000000   
O      0.189200000000     0.369700000000     0.431266666667   
C      0.192500000000     0.383600000000     0.464833333333   
C      0.191000000000     0.345900000000     0.653900000000   
C      0.221450000000     0.333950000000     0.637300000000   
C      0.221850000000     0.382300000000     0.488666666667   
C      0.222350000000     0.309900000000     0.608966666667   
H      0.200000000000     0.301500000000     0.598333333333   
C      0.222850000000     0.387650000000     0.532066666667   
H      0.203595000000     0.390767000000     0.546433000000   
Al     0.127040000000     0.406870000000     0.473266666667   
O      0.125350000000     0.379705000000     0.428766666667   
O      0.083250000000     0.415600000000     0.468600000000   
O      0.170850000000     0.401850000000     0.481133333333   
O      0.135850000000     0.440700000000     0.433633333333   
O      0.130300000000     0.439200000000     0.514600000000   
C      0.116400000000     0.442500000000     0.548166666667   
C      0.154100000000     0.441000000000     0.403900000000   
C      0.166050000000     0.471450000000     0.387300000000   
C      0.117700000000     0.471850000000     0.572000000000   
C      0.190100000000     0.472350000000     0.358966666667   
H      0.198500000000     0.450000000000     0.348333333333   
C      0.112350000000     0.472850000000     0.615400000000   
H      0.109233000000     0.453595000000     0.629766333333   
Al     0.156870000000     0.127040000000     0.389933333333   
O      0.129705000000     0.125350000000     0.345433333333   
O      0.165600000000     0.083250000000     0.385266666667   
O      0.151850000000     0.170850000000     0.397800000000   
O      0.190700000000     0.135850000000     0.350300000000   
O      0.189200000000     0.130300000000     0.431266666667   
C      0.192500000000     0.116400000000     0.464833333333   
C      0.191000000000     0.154100000000     0.653900000000   
C      0.221450000000     0.166050000000     0.637300000000   
C      0.250000000000     0.122300000000     0.468166666667   
C      0.250000000000     0.111450000000     0.554366666667   
H      0.250000000000     0.110297500000     0.583932333333   
C      0.250000000000     0.154450000000     0.655300000000   
C      0.221850000000     0.117700000000     0.488666666667   
C      0.222350000000     0.190100000000     0.608966666667   
H      0.200000000000     0.198500000000     0.598333333333   
C      0.222850000000     0.112350000000     0.532066666667   
H      0.203595000000     0.109233000000     0.546433000000   
C      0.250000000000     0.201050000000     0.595500000000   
H      0.250000000000     0.218000000000     0.573666666667   
H      0.250000000000     0.126000000000     0.439666666667   
Al     0.372960000000     0.406870000000     0.473266666667   
O      0.374650000000     0.379705000000     0.428766666667   
O      0.416750000000     0.415600000000     0.468600000000   
O      0.329150000000     0.401850000000     0.481133333333   
O      0.364150000000     0.440700000000     0.433633333333   
O      0.369700000000     0.439200000000     0.514600000000   
C      0.383600000000     0.442500000000     0.548166666667   
C      0.345900000000     0.441000000000     0.403900000000   
C      0.333950000000     0.471450000000     0.387300000000   
C      0.377700000000     0.000000000000     0.551500000000   
C      0.388550000000     0.000000000000     0.637700000000   
H      0.389702500000     0.000000000000     0.333932333333   
C      0.345550000000     0.000000000000     0.405300000000   
C      0.382300000000     0.471850000000     0.572000000000   
C      0.309900000000     0.472350000000     0.358966666667   
H      0.301500000000     0.450000000000     0.348333333333   
C      0.387650000000     0.472850000000     0.615400000000   
H      0.390767000000     0.453595000000     0.629766333333   
C      0.298950000000     0.000000000000     0.345500000000   
H      0.282000000000     0.000000000000     0.657000000000   
H      0.374000000000     0.000000000000     0.523000000000   
Al     0.093130000000     0.122960000000     0.556600000000   
O      0.120295000000     0.124650000000     0.512100000000   
O      0.084400000000     0.166750000000     0.551933333333   
O      0.098150000000     0.079150000000     0.564466666667   
O      0.059300000000     0.114150000000     0.516966666667   
O      0.060800000000     0.119700000000     0.597933333333   
C      0.057500000000     0.133600000000     0.631500000000   
C      0.059000000000     0.095900000000     0.487233333333   
C      0.028550000000     0.083950000000     0.470633333333   
C      0.000000000000     0.127700000000     0.634833333333   