%BLOCK LATTICE_CART
ang    # angstrom units
  21.422100000000    0.000000000000     0.000000000000   
  0.000000000000     21.422100000000    0.000000000000   
  0.000000000000     0.000000000000     10.735100000000  
%ENDBLOCK LATTICE_CART

%BLOCK POSITIONS_FRAC
Al     0.375000000000     0.217505000000     0.187500000000   
O      0.418885000000     0.216755000000     0.183375000000   
O      0.377580000000     0.247420000000     0.218750000000   
O      0.372050000000     0.184490000000     0.157925000000   
C      0.356230000000     0.183315000000     0.133125000000   
C      0.358100000000     0.125000000000     0.132975000000   
C      0.351800000000     0.152860000000     0.117575000000   
C      0.340550000000     0.152800000000     0.087350000000   
C      0.335500000000     0.125000000000     0.070900000000   
N      0.324450000000     0.125000000000     0.039575000000   
H      0.314085000000     0.144240000000     0.023052500000   
H      0.366500000000     0.125000000000     0.153500000000   
H      0.337500000000     0.173500000000     0.075500000000   
Al     0.407495000000     0.250000000000     0.000000000000   
O      0.408245000000     0.293885000000     0.245875000000   
O      0.377580000000     0.252580000000     0.031250000000   
O      0.440510000000     0.247050000000     0.220425000000   
C      0.441685000000     0.231230000000     0.195625000000   
C      0.000000000000     0.233100000000     0.195475000000   
C      0.472140000000     0.226800000000     0.180075000000   
C      0.472200000000     0.215550000000     0.149850000000   
C      0.000000000000     0.210500000000     0.133400000000   
N      0.000000000000     0.199450000000     0.102075000000   
H      0.480760000000     0.189085000000     0.085552500000   
H      0.000000000000     0.241500000000     0.216000000000   
H      0.451500000000     0.212500000000     0.138000000000   
Al     0.375000000000     0.282495000000     0.062500000000   
O      0.331115000000     0.283245000000     0.058375000000   
O      0.372420000000     0.252580000000     0.093750000000   
O      0.377950000000     0.315510000000     0.032925000000   
C      0.393770000000     0.316685000000     0.008125000000   
C      0.391900000000     0.375000000000     0.007975000000   
C      0.398200000000     0.347140000000     0.242575000000   
C      0.409450000000     0.347200000000     0.212350000000   
C      0.414500000000     0.375000000000     0.195900000000   
N      0.425550000000     0.375000000000     0.164575000000   
H      0.435915000000     0.355760000000     0.148052500000   
H      0.383500000000     0.375000000000     0.028500000000   
H      0.412500000000     0.326500000000     0.200500000000   
Al     0.342505000000     0.250000000000     0.125000000000   
O      0.341755000000     0.206115000000     0.120875000000   
O      0.372420000000     0.247420000000     0.156250000000   
O      0.309490000000     0.252950000000     0.095425000000   
C      0.308315000000     0.268770000000     0.070625000000   
C      0.250000000000     0.266900000000     0.070475000000   
C      0.277860000000     0.273200000000     0.055075000000   
C      0.277800000000     0.284450000000     0.024850000000   
C      0.250000000000     0.289500000000     0.008400000000   
N      0.250000000000     0.300550000000     0.227075000000   
H      0.269240000000     0.310915000000     0.210552500000   
H      0.250000000000     0.258500000000     0.091000000000   
H      0.298500000000     0.287500000000     0.013000000000   
O      0.418885000000     0.283245000000     0.066625000000   
O      0.372050000000     0.315510000000     0.092075000000   
C      0.356230000000     0.316685000000     0.116875000000   
C      0.358100000000     0.375000000000     0.117025000000   
C      0.351800000000     0.347140000000     0.132425000000   
C      0.340550000000     0.347200000000     0.162650000000   
C      0.335500000000     0.375000000000     0.179100000000   
N      0.324450000000     0.375000000000     0.210425000000   
H      0.314085000000     0.355760000000     0.226947500000   
H      0.366500000000     0.375000000000     0.096500000000   
H      0.337500000000     0.326500000000     0.174500000000   
O      0.341755000000     0.293885000000     0.129125000000   
O      0.309490000000     0.247050000000     0.154575000000   
C      0.308315000000     0.231230000000     0.179375000000   
C      0.250000000000     0.233100000000     0.179525000000   
C      0.277860000000     0.226800000000     0.194925000000   
C      0.277800000000     0.215550000000     0.225150000000   
C      0.250000000000     0.210500000000     0.241600000000   
N      0.250000000000     0.199450000000     0.022925000000   
H      0.269240000000     0.189085000000     0.039447500000   
H      0.250000000000     0.241500000000     0.159000000000   
H      0.298500000000     0.212500000000     0.237000000000   
O      0.331115000000     0.216755000000     0.191625000000   
O      0.377950000000     0.184490000000     0.217075000000   
C      0.393770000000     0.183315000000     0.241875000000   
C      0.391900000000     0.125000000000     0.242025000000   
C      0.398200000000     0.152860000000     0.007425000000   
C      0.409450000000     0.152800000000     0.037650000000   
C      0.414500000000     0.125000000000     0.054100000000   
N      0.425550000000     0.125000000000     0.085425000000   
H      0.435915000000     0.144240000000     0.101947500000   
H      0.383500000000     0.125000000000     0.221500000000   
H      0.412500000000     0.173500000000     0.049500000000   
O      0.408245000000     0.206115000000     0.004125000000   
O      0.440510000000     0.252950000000     0.029575000000   
C      0.441685000000     0.268770000000     0.054375000000   
C      0.000000000000     0.266900000000     0.054525000000   
C      0.472140000000     0.273200000000     0.069925000000   
C      0.472200000000     0.284450000000     0.100150000000   
C      0.000000000000     0.289500000000     0.116600000000   
N      0.000000000000     0.300550000000     0.147925000000   
H      0.480760000000     0.310915000000     0.164447500000   
H      0.000000000000     0.258500000000     0.034000000000   
H      0.451500000000     0.287500000000     0.112000000000   
Al     0.125000000000     0.282495000000     0.062500000000   
O      0.081115000000     0.283245000000     0.066625000000   
O      0.122420000000     0.252580000000     0.031250000000   
O      0.127950000000     0.315510000000     0.092075000000   
C      0.143770000000     0.316685000000     0.116875000000   
C      0.141900000000     0.375000000000     0.117025000000   
C      0.148200000000     0.347140000000     0.132425000000   
C      0.159450000000     0.347200000000     0.162650000000   
C      0.164500000000     0.375000000000     0.179100000000   
N      0.175550000000     0.375000000000     0.210425000000   
H      0.185915000000     0.355760000000     0.226947500000   
H      0.133500000000     0.375000000000     0.096500000000   
H      0.162500000000     0.326500000000     0.174500000000   
Al     0.092505000000     0.250000000000     0.000000000000   
O      0.091755000000     0.206115000000     0.004125000000   
O      0.122420000000     0.247420000000     0.218750000000   
O      0.059490000000     0.252950000000     0.029575000000   
C      0.058315000000     0.268770000000     0.054375000000   
C      0.027860000000     0.273200000000     0.069925000000   
C      0.027800000000     0.284450000000     0.100150000000   
H      0.019240000000     0.310915000000     0.164447500000   
H      0.048500000000     0.287500000000     0.112000000000   
Al     0.125000000000     0.217505000000     0.187500000000   
O      0.168885000000     0.216755000000     0.191625000000   
O      0.127580000000     0.247420000000     0.156250000000   
O      0.122050000000     0.184490000000     0.217075000000   
C      0.106230000000     0.183315000000     0.241875000000   
C      0.108100000000     0.125000000000     0.242025000000   
C      0.101800000000     0.152860000000     0.007425000000   
C      0.090550000000     0.152800000000     0.037650000000   
C      0.085500000000     0.125000000000     0.054100000000   
N      0.074450000000     0.125000000000     0.085425000000   
H      0.064085000000     0.144240000000     0.101947500000   
H      0.116500000000     0.125000000000     0.221500000000   
H      0.087500000000     0.173500000000     0.049500000000   
Al     0.157495000000     0.250000000000     0.125000000000   
O      0.158245000000     0.293885000000     0.129125000000   
O      0.127580000000     0.252580000000     0.093750000000   
O      0.190510000000     0.247050000000     0.154575000000   
C      0.191685000000     0.231230000000     0.179375000000   
C      0.222140000000     0.226800000000     0.194925000000   
C      0.222200000000     0.215550000000     0.225150000000   
H      0.230760000000     0.189085000000     0.039447500000   
H      0.201500000000     0.212500000000     0.237000000000   
O      0.081115000000     0.216755000000     0.183375000000   
O      0.127950000000     0.184490000000     0.157925000000   
C      0.143770000000     0.183315000000     0.133125000000   
C      0.141900000000     0.125000000000     0.132975000000   
C      0.148200000000     0.152860000000     0.117575000000   
C      0.159450000000     0.152800000000     0.087350000000   
C      0.164500000000     0.125000000000     0.070900000000   
N      0.175550000000     0.125000000000     0.039575000000   
H      0.185915000000     0.144240000000     0.023052500000   
H      0.133500000000     0.125000000000     0.153500000000   
H      0.162500000000     0.173500000000     0.075500000000   
O      0.158245000000     0.206115000000     0.120875000000   
O      0.190510000000     0.252950000000     0.095425000000   
C      0.191685000000     0.268770000000     0.070625000000   
C      0.222140000000     0.273200000000     0.055075000000   
C      0.222200000000     0.284450000000     0.024850000000   
H      0.230760000000     0.310915000000     0.210552500000   
H      0.201500000000     0.287500000000     0.013000000000   
O      0.168885000000     0.283245000000     0.058375000000   
O      0.122050000000     0.315510000000     0.032925000000   
C      0.106230000000     0.316685000000     0.008125000000   
C      0.108100000000     0.375000000000     0.007975000000   
C      0.101800000000     0.347140000000     0.242575000000   
C      0.090550000000     0.347200000000     0.212350000000   
C      0.085500000000     0.375000000000     0.195900000000   
N      0.074450000000     0.375000000000     0.164575000000   
H      0.064085000000     0.355760000000     0.148052500000   
H      0.116500000000     0.375000000000     0.028500000000   
H      0.087500000000     0.326500000000     0.200500000000   
O      0.091755000000     0.293885000000     0.245875000000   
O      0.059490000000     0.247050000000     0.220425000000   
C      0.058315000000     0.231230000000     0.195625000000   
C      0.027860000000     0.226800000000     0.180075000000   
C      0.027800000000     0.215550000000     0.149850000000   
H      0.019240000000     0.189085000000     0.085552500000   
H      0.048500000000     0.212500000000     0.138000000000   
Al     0.125000000000     0.467505000000     0.062500000000   
O      0.168885000000     0.466755000000     0.058375000000   
O      0.127580000000     0.497420000000     0.093750000000   
O      0.122050000000     0.434490000000     0.032925000000   
C      0.106230000000     0.433315000000     0.008125000000   
C      0.101800000000     0.402860000000     0.242575000000   
C      0.090550000000     0.402800000000     0.212350000000   
H      0.064085000000     0.394240000000     0.148052500000   
H      0.087500000000     0.423500000000     0.200500000000   
Al     0.157495000000     0.000000000000     0.125000000000   
O      0.158245000000     0.043885000000     0.120875000000   
O      0.127580000000     0.002580000000     0.156250000000   
O      0.190510000000     0.497050000000     0.095425000000   
C      0.191685000000     0.481230000000     0.070625000000   
C      0.250000000000     0.483100000000     0.070475000000   
C      0.222140000000     0.476800000000     0.055075000000   
C      0.222200000000     0.465550000000     0.024850000000   
C      0.250000000000     0.460500000000     0.008400000000   
N      0.250000000000     0.449450000000     0.227075000000   
H      0.230760000000     0.439085000000     0.210552500000   
H      0.250000000000     0.491500000000     0.091000000000   
H      0.201500000000     0.462500000000     0.013000000000   
Al     0.125000000000     0.032495000000     0.187500000000   
O      0.081115000000     0.033245000000     0.183375000000   
O      0.122420000000     0.002580000000     0.218750000000   
O      0.127950000000     0.065510000000     0.157925000000   
C      0.143770000000     0.066685000000     0.133125000000   
C      0.148200000000     0.097140000000     0.117575000000   
C      0.159450000000     0.097200000000     0.087350000000   
H      0.185915000000     0.105760000000     0.023052500000   
H      0.162500000000     0.076500000000     0.075500000000   
Al     0.092505000000     0.000000000000     0.000000000000   
O      0.091755000000     0.456115000000     0.245875000000   
O      0.122420000000     0.497420000000     0.031250000000   
O      0.059490000000     0.002950000000     0.220425000000   
C      0.058315000000     0.018770000000     0.195625000000   
C      0.000000000000     0.016900000000     0.195475000000   
C      0.027860000000     0.023200000000     0.180075000000   
C      0.027800000000     0.034450000000     0.149850000000   
C      0.000000000000     0.039500000000     0.133400000000   
N      0.000000000000     0.050550000000     0.102075000000   
H      0.019240000000     0.060915000000     0.085552500000   
H      0.000000000000     0.008500000000     0.216000000000   
H      0.048500000000     0.037500000000     0.138000000000   
O      0.168885000000     0.033245000000     0.191625000000   
O      0.122050000000     0.065510000000     0.217075000000   
C      0.106230000000     0.066685000000     0.241875000000   
C      0.101800000000     0.097140000000     0.007425000000   
C      0.090550000000     0.097200000000     0.037650000000   
H      0.064085000000     0.105760000000     0.101947500000   
H      0.087500000000     0.076500000000     0.049500000000   
O      0.091755000000     0.043885000000     0.004125000000   
O      0.059490000000     0.497050000000     0.029575000000   
C      0.058315000000     0.481230000000     0.054375000000   
C      0.000000000000     0.483100000000     0.054525000000   
C      0.027860000000     0.476800000000     0.069925000000   
C      0.027800000000     0.465550000000     0.100150000000   
C      0.000000000000     0.460500000000     0.116600000000   
N      0.000000000000     0.449450000000     0.147925000000   
H      0.019240000000     0.439085000000     0.164447500000   
H      0.000000000000     0.491500000000     0.034000000000   
H      0.048500000000     0.462500000000     0.112000000000   
O      0.081115000000     0.466755000000     0.066625000000   
O      0.127950000000     0.434490000000     0.092075000000   
C      0.143770000000     0.433315000000     0.116875000000   
C      0.148200000000     0.402860000000     0.132425000000   
C      0.159450000000     0.402800000000     0.162650000000   
H      0.185915000000     0.394240000000     0.226947500000   
H      0.162500000000     0.423500000000     0.174500000000   
O      0.158245000000     0.456115000000     0.129125000000   
O      0.190510000000     0.002950000000     0.154575000000   
C      0.191685000000     0.018770000000     0.179375000000   
C      0.250000000000     0.016900000000     0.179525000000   
C      0.222140000000     0.023200000000     0.194925000000   
C      0.222200000000     0.034450000000     0.225150000000   
C      0.250000000000     0.039500000000     0.241600000000   
N      0.250000000000     0.050550000000     0.022925000000   
H      0.230760000000     0.060915000000     0.039447500000   
H      0.250000000000     0.008500000000     0.159000000000   
H      0.201500000000     0.037500000000     0.237000000000   
Al     0.375000000000     0.032495000000     0.187500000000   
O      0.331115000000     0.033245000000     0.191625000000   
O      0.372420000000     0.002580000000     0.156250000000   
O      0.377950000000     0.065510000000     0.217075000000   
C      0.393770000000     0.066685000000     0.241875000000   
C      0.398200000000     0.097140000000     0.007425000000   
C      0.409450000000     0.097200000000     0.037650000000   
H      0.435915000000     0.105760000000     0.101947500000   
H      0.412500000000     0.076500000000     0.049500000000   
Al     0.342505000000     0.000000000000     0.125000000000   
O      0.341755000000     0.456115000000     0.129125000000   
O      0.372420000000     0.497420000000     0.093750000000   
O      0.309490000000     0.002950000000     0.154575000000   
C      0.308315000000     0.018770000000     0.179375000000   
C      0.277860000000     0.023200000000     0.194925000000   
C      0.277800000000     0.034450000000     0.225150000000   
H      0.269240000000     0.060915000000     0.039447500000   
H      0.298500000000     0.037500000000     0.237000000000   
Al     0.375000000000     0.467505000000     0.062500000000   
O      0.418885000000     0.466755000000     0.066625000000   
O      0.377580000000     0.497420000000     0.031250000000   
O      0.372050000000     0.434490000000     0.092075000000   
C      0.356230000000     0.433315000000     0.116875000000   
C      0.351800000000     0.402860000000     0.132425000000   
C      0.340550000000     0.402800000000     0.162650000000   
H      0.314085000000     0.394240000000     0.226947500000   
H      0.337500000000     0.423500000000     0.174500000000   
Al     0.407495000000     0.000000000000     0.000000000000   
O      0.408245000000     0.043885000000     0.004125000000   
O      0.377580000000     0.002580000000     0.218750000000   
O      0.440510000000     0.497050000000     0.029575000000   
C      0.441685000000     0.481230000000     0.054375000000   
C      0.472140000000     0.476800000000     0.069925000000   
C      0.472200000000     0.465550000000     0.100150000000   
H      0.480760000000     0.439085000000     0.164447500000   
H      0.451500000000     0.462500000000     0.112000000000   
O      0.331115000000     0.466755000000     0.058375000000   
O      0.377950000000     0.434490000000     0.032925000000   
C      0.393770000000     0.433315000000     0.008125000000   
C      0.398200000000     0.402860000000     0.242575000000   
C      0.409450000000     0.402800000000     0.212350000000   
H      0.435915000000     0.394240000000     0.148052500000   
H      0.412500000000     0.423500000000     0.200500000000   
O      0.408245000000     0.456115000000     0.245875000000   
O      0.440510000000     0.002950000000     0.220425000000   
C      0.441685000000     0.018770000000     0.195625000000   
C      0.472140000000     0.023200000000     0.180075000000   
C      0.472200000000     0.034450000000     0.149850000000   
H      0.480760000000     0.060915000000     0.085552500000   
H      0.451500000000     0.037500000000     0.138000000000   
O      0.418885000000     0.033245000000     0.183375000000   
O      0.372050000000     0.065510000000     0.157925000000   
C      0.356230000000     0.066685000000     0.133125000000   
C      0.351800000000     0.097140000000     0.117575000000   
C      0.340550000000     0.097200000000     0.087350000000   
H      0.314085000000     0.105760000000     0.023052500000   
H      0.337500000000     0.076500000000     0.075500000000   
O      0.341755000000     0.043885000000     0.120875000000   
O      0.309490000000     0.497050000000     0.095425000000   
C      0.308315000000     0.481230000000     0.070625000000   
C      0.277860000000     0.476800000000     0.055075000000   
C      0.277800000000     0.465550000000     0.024850000000   
H      0.269240000000     0.439085000000     0.210552500000   
H      0.298500000000     0.462500000000     0.013000000000   
Al     0.375000000000     0.217505000000     0.437500000000   
O      0.418885000000     0.216755000000     0.433375000000   
O      0.377580000000     0.247420000000     0.468750000000   
O      0.372050000000     0.184490000000     0.407925000000   
C      0.356230000000     0.183315000000     0.383125000000   
C      0.358100000000     0.125000000000     0.382975000000   
C      0.351800000000     0.152860000000     0.367575000000   
C      0.340550000000     0.152800000000     0.337350000000   
C      0.335500000000     0.125000000000     0.320900000000   
N      0.324450000000     0.125000000000     0.289575000000   
H      0.314085000000     0.144240000000     0.273052500000   
H      0.366500000000     0.125000000000     0.403500000000   
H      0.337500000000     0.173500000000     0.325500000000   
Al     0.407495000000     0.250000000000     0.250000000000   
O      0.408245000000     0.293885000000     0.495875000000   
O      0.377580000000     0.252580000000     0.281250000000   
O      0.440510000000     0.247050000000     0.470425000000   
C      0.441685000000     0.231230000000     0.445625000000   
C      0.000000000000     0.233100000000     0.445475000000   
C      0.472140000000     0.226800000000     0.430075000000   
C      0.472200000000     0.215550000000     0.399850000000   
C      0.000000000000     0.210500000000     0.383400000000   
N      0.000000000000     0.199450000000     0.352075000000   
H      0.480760000000     0.189085000000     0.335552500000   
H      0.000000000000     0.241500000000     0.466000000000   
H      0.451500000000     0.212500000000     0.388000000000   
Al     0.375000000000     0.282495000000     0.312500000000   
O      0.331115000000     0.283245000000     0.308375000000   
O      0.372420000000     0.252580000000     0.343750000000   
O      0.377950000000     0.315510000000     0.282925000000   
C      0.393770000000     0.316685000000     0.258125000000   
C      0.391900000000     0.375000000000     0.257975000000   
C      0.398200000000     0.347140000000     0.492575000000   
C      0.409450000000     0.347200000000     0.462350000000   
C      0.414500000000     0.375000000000     0.445900000000   
N      0.425550000000     0.375000000000     0.414575000000   
H      0.435915000000     0.355760000000     0.398052500000   
H      0.383500000000     0.375000000000     0.278500000000   
H      0.412500000000     0.326500000000     0.450500000000   
Al     0.342505000000     0.250000000000     0.375000000000   
O      0.341755000000     0.206115000000     0.370875000000   
O      0.372420000000     0.247420000000     0.406250000000   
O      0.309490000000     0.252950000000     0.345425000000   
C      0.308315000000     0.268770000000     0.320625000000   
C      0.250000000000     0.266900000000     0.320475000000   
C      0.277860000000     0.273200000000     0.305075000000   
C      0.277800000000     0.284450000000     0.274850000000   
C      0.250000000000     0.289500000000     0.258400000000   
N      0.250000000000     0.300550000000     0.477075000000   
H      0.269240000000     0.310915000000     0.460552500000   
H      0.250000000000     0.258500000000     0.341000000000   
H      0.298500000000     0.287500000000     0.263000000000   
O      0.418885000000     0.283245000000     0.316625000000   
O      0.372050000000     0.315510000000     0.342075000000   
C      0.356230000000     0.316685000000     0.366875000000   
C      0.358100000000     0.375000000000     0.367025000000   
C      0.351800000000     0.347140000000     0.382425000000   
C      0.340550000000     0.347200000000     0.412650000000   
C      0.335500000000     0.375000000000     0.429100000000   
N      0.324450000000     0.375000000000     0.460425000000   
H      0.314085000000     0.355760000000     0.476947500000   
H      0.366500000000     0.375000000000     0.346500000000   
H      0.337500000000     0.326500000000     0.424500000000   
O      0.341755000000     0.293885000000     0.379125000000   
O      0.309490000000     0.247050000000     0.404575000000   
C      0.308315000000     0.231230000000     0.429375000000   
C      0.250000000000     0.233100000000     0.429525000000   
C      0.277860000000     0.226800000000     0.444925000000   
C      0.277800000000     0.215550000000     0.475150000000   
C      0.250000000000     0.210500000000     0.491600000000   
N      0.250000000000     0.199450000000     0.272925000000   
H      0.269240000000     0.189085000000     0.289447500000   
H      0.250000000000     0.241500000000     0.409000000000   
H      0.298500000000     0.212500000000     0.487000000000   
O      0.331115000000     0.216755000000     0.441625000000   
O      0.377950000000     0.184490000000     0.467075000000   
C      0.393770000000     0.183315000000     0.491875000000   
C      0.391900000000     0.125000000000     0.492025000000   
C      0.398200000000     0.152860000000     0.257425000000   
C      0.409450000000     0.152800000000     0.287650000000   
C      0.414500000000     0.125000000000     0.304100000000   
N      0.425550000000     0.125000000000     0.335425000000   
H      0.435915000000     0.144240000000     0.351947500000   
H      0.383500000000     0.125000000000     0.471500000000   
H      0.412500000000     0.173500000000     0.299500000000   
O      0.408245000000     0.206115000000     0.254125000000   
O      0.440510000000     0.252950000000     0.279575000000   
C      0.441685000000     0.268770000000     0.304375000000   
C      0.000000000000     0.266900000000     0.304525000000   
C      0.472140000000     0.273200000000     0.319925000000   
C      0.472200000000     0.284450000000     0.350150000000   
C      0.000000000000     0.289500000000     0.366600000000   
N      0.000000000000     0.300550000000     0.397925000000   
H      0.480760000000     0.310915000000     0.414447500000   
H      0.000000000000     0.258500000000     0.284000000000   
H      0.451500000000     0.287500000000     0.362000000000   
Al     0.125000000000     0.282495000000     0.312500000000   
O      0.081115000000     0.283245000000     0.316625000000   
O      0.122420000000     0.252580000000     0.281250000000   
O      0.127950000000     0.315510000000     0.342075000000   
C      0.143770000000     0.316685000000     0.366875000000   
C      0.141900000000     0.375000000000     0.367025000000   
C      0.148200000000     0.347140000000     0.382425000000   
C      0.159450000000     0.347200000000     0.412650000000   
C      0.164500000000     0.375000000000     0.429100000000   
N      0.175550000000     0.375000000000     0.460425000000   
H      0.185915000000     0.355760000000     0.476947500000   
H      0.133500000000     0.375000000000     0.346500000000   
H      0.162500000000     0.326500000000     0.424500000000   
Al     0.092505000000     0.250000000000     0.250000000000   
O      0.091755000000     0.206115000000     0.254125000000   
O      0.122420000000     0.247420000000     0.468750000000   
O      0.059490000000     0.252950000000     0.279575000000   
C      0.058315000000     0.268770000000     0.304375000000   
C      0.027860000000     0.273200000000     0.319925000000   
C      0.027800000000     0.284450000000     0.350150000000   
H      0.019240000000     0.310915000000     0.414447500000   
H      0.048500000000     0.287500000000     0.362000000000   
Al     0.125000000000     0.217505000000     0.437500000000   
O      0.168885000000     0.216755000000     0.441625000000   
O      0.127580000000     0.247420000000     0.406250000000   
O      0.122050000000     0.184490000000     0.467075000000   
C      0.106230000000     0.183315000000     0.491875000000   
C      0.108100000000     0.125000000000     0.492025000000   
C      0.101800000000     0.152860000000     0.257425000000   
C      0.090550000000     0.152800000000     0.287650000000   
C      0.085500000000     0.125000000000     0.304100000000   
N      0.074450000000     0.125000000000     0.335425000000   
H      0.064085000000     0.144240000000     0.351947500000   
H      0.116500000000     0.125000000000     0.471500000000   
H      0.087500000000     0.173500000000     0.299500000000   
Al     0.157495000000     0.250000000000     0.375000000000   
O      0.158245000000     0.293885000000     0.379125000000   
O      0.127580000000     0.252580000000     0.343750000000   
O      0.190510000000     0.247050000000     0.404575000000   
C      0.191685000000     0.231230000000     0.429375000000   
C      0.222140000000     0.226800000000     0.444925000000   
C      0.222200000000     0.215550000000     0.475150000000   
H      0.230760000000     0.189085000000     0.289447500000   
H      0.201500000000     0.212500000000     0.487000000000   
O      0.081115000000     0.216755000000     0.433375000000   
O      0.127950000000     0.184490000000     0.407925000000   
C      0.143770000000     0.183315000000     0.383125000000   
C      0.141900000000     0.125000000000     0.382975000000   
C      0.148200000000     0.152860000000     0.367575000000   
C      0.159450000000     0.152800000000     0.337350000000   
C      0.164500000000     0.125000000000     0.320900000000   
N      0.175550000000     0.125000000000     0.289575000000   
H      0.185915000000     0.144240000000     0.273052500000   
H      0.133500000000     0.125000000000     0.403500000000   
H      0.162500000000     0.173500000000     0.325500000000   
O      0.158245000000     0.206115000000     0.370875000000   